26657570,活着为了讲述,,[哥伦比亚] 加西亚·马尔克斯,李静,南海出版公司,2016-4-1,CNY 55.00,9.0
26853060,我心深处,,[哥伦比亚] 加西亚·马尔克斯,李静,南海出版公司,2016-4-1,CNY 55.00,9.1
26896859,当呼吸化为空气,美国天才医师的生命笔记,[美] 保罗·卡拉尼什,何雨珈,猫头鹰文化·浙江文艺出版社,2016-12,48.00元,9.0
6152040,维特根斯坦传,天才之为责任,[英] 瑞·蒙克,王宇光,浙江大学出版社,2011-6,79.00元,9.1
6798611,史蒂夫·乔布斯传,,[美] 沃尔特·艾萨克森,管延圻、魏群、余倩、赵萌萌、汤崧,中信出版社,2011-10-24,68.00元,8.7
26939261,时光列车,,[美] 帕蒂·史密斯,非尔,理想国 | 广西师范大学出版社,2017-1,58.00,8.6
20424526,邓小平时代,,傅高义,冯克利,生活·读书·新知三联书店,2013-1-18,88.00元,8.9
1083762,人类的群星闪耀时,,[奥] 斯蒂芬·茨威格,舒昌善,广西师范大学出版社,2004-8,18.00元,8.7
26838873,伍迪·艾伦谈话录,,[美] 埃里克·拉克斯,付裕、纪宇,河南大学出版社,2016-9,68.00,8.5
1037602,别闹了，费曼先生,科学顽童的故事,费曼,吴程远,生活·读书·新知三联书店,1997-12,22.00,8.9
26889236,我的职业是小说家,,[日] 村上春树,施小炜,南海出版公司,2017-1-1,45.00元,8.4
26849305,成为乔布斯,,[美] 布伦特·施兰德、[美] 里克·特策利,陶亮,中信出版集团,2016-10,69.00元,8.9
26860776,鞋狗,耐克创始人菲尔·奈特亲笔自传,[美] 菲尔·奈特,毛大庆,北京联合出版公司,2016-9-1,89.90元,8.5
19962936,只是孩子,,[美] 帕蒂•史密斯,刘奕,广西师范大学出版社,2012-10,39.00元,8.7
25883305,阿拉伯的劳伦斯,战争、谎言、帝国愚行与现代中东的形成,[美] 斯科特·安德森,陆大鹏,社会科学文献出版社,2014-9-1,72.00元,9.1
26120130,天才的编辑,麦克斯·珀金斯与一个文学时代,[美] A.司各特·伯格,彭伦,广西师范大学出版社,2015-6,69.80元,9.1
26782506,伊莎贝拉,武士女王,[美] 克斯汀·唐尼,陆大鹏,社会科学文献出版社·甲骨文,2016-5,86.00元,8.7
26657740,再度觉醒,,[美] 克斯汀·唐尼,陆大鹏,社会科学文献出版社·甲骨文,2016-5,86.00元,9.0
1062343,昨日的世界,一个欧洲人的回忆,[奥］斯蒂芬・茨威格,舒昌善、孙龙生、刘春华、戴奎生,广西师范大学出版社,2004-5,32.00元,9.2
26682066,我的奋斗1,父亲的葬礼,[挪威] 卡尔·奥韦·克瑙斯高,林后,广西师范大学出版社·理想国,2016-1,68.00,8.5
26759508,硅谷钢铁侠,埃隆·马斯克的冒险人生,[美] 阿什利·万斯,周恒星,中信出版集团,2016-4,68.00元,8.1
1115353,奇特的一生,,[苏] 格拉宁,侯焕闳、唐其慈,海燕出版社,2001-3,13.00元,8.3
26640091,痛苦与狂喜: 向石而生,米开朗基罗传1,[美] 欧文·斯通,张晓意、武建博,南京大学出版社,2016-1-1,49.50 元,8.8
26929955,腾讯传,中国互联网公司进化论,吴晓波,,浙江大学出版社,2017-1-1,58.00元,8.1
26756140,行动的勇气,金融危机及其余波回忆录,[美]本·伯南克,蒋宗强,中信出版社,2016-5,78.00元,9.9
1792668,苏东坡传,,林语堂,张振玉,陕西师范大学出版社,2006-5,24.80元,8.5
1092149,梵高传,对生活的渴求,[美] 欧文·斯通,常涛,北京出版社,2001-2,25.00元,8.7
26920198,里尔克传,鸣响的杯子,[英] 唐纳德·普拉特,张兴文,浙江大学出版社·启真馆,2016-12-17,108.00,9.2
1076685,李鸿章传,,梁启超,,百花文艺出版社,2000-5,10.00元,8.8
26840568,草疯长,,梁启超,,百花文艺出版社,2000-5,10.00元,9.2
1914636,蛤蟆的油,,[日] 黑泽明,李正伦,南海出版公司,2006-11,25.00元,8.4
1446407,发现的乐趣,,R·P·费曼,,湖南科学技术出版社,2005-10,19.00元,8.7
4903265,亲爱的提奥,凡高自传,[荷]文森特·凡高,平野,南海出版公司,2010-8,36.00元,9.1
26262141,毛姆传,毛姆的秘密生活,[英]塞琳娜· 黑斯廷斯,赵文伟,安徽文艺出版社,2015-1,48.00,8.3
25897707,沈从文的后半生,,张新颖,,广西师范大学出版社,2014-6-1,CNY 59.00,9.0
26413154,李光耀观天下,,李光耀,,北京大学出版社,2015-6,58.00元,9.0
1433346,旁观者,管理大师德鲁克回忆录,[美] 彼得.德鲁克,廖月娟,机械工业出版社,2005-9,38.00元,8.7
26723433,冬日笔记,,[美] 保罗·奥斯特,btr,人民文学出版社,2016-6,35.00,7.7
26924030,柏辽兹回忆录,狂飙之子与十九世纪西欧文艺,[法] 埃克托尔·柏辽兹,冷杉、佟心平,后浪丨北京联合出版公司,2017-1,78.00元,9.8
3888123,写作这回事,创作生涯回忆录,[美]斯蒂芬·金,张坤,上海译文出版社,2009.08,28.00,8.6
1034470,柳如是别传（全三册）,,陈寅恪,,生活·读书·新知三联书店,2001-1,98.00元,9.0
26666533,梵高手稿,梵高书信、画作、珍贵手稿,陈寅恪,,生活·读书·新知三联书店,2001-1,98.00元,9.2
5346110,穷查理宝典,查理·芒格的智慧箴言录,[美]彼得·考夫曼 (编),李继宏,上海人民出版社,2010-10-01,88.00,9.0
1037060,曾国藩（上中下）,,唐浩明,,人民文学出版社,2002-7,66.00元,8.6
25858095,我是你的男人,莱昂纳德·科恩传记,西尔维·西蒙斯,陈震,湖南文艺出版社,2014-5,68.00元,8.7
4010196,世界因你不同,李开复自传,李开复、范海涛,,中信出版社,2009-9,29.80元,8.1
2275502,十年一觉电影梦,李安传,张靓蓓 编著,,人民文学出版社,2007-10,38.00元,8.1
26354318,梵高传,,史蒂芬·奈菲、格雷高里·怀特·史密斯,沈语冰、宋倩、何卫华、匡骁,译林出版社,2015-11,128.00,9.1
1491153,曾国藩家书,,曾国藩,陈书凯,蓝天,2006-4,35.00元,8.7
5408858,建筑家安藤忠雄,,[日] 安藤忠雄,龙国英,中信出版社,2011-3-1,88.00,8.9
10797092,蒋介石与现代中国,,[美] 陶涵,林添贵,中信出版社,2012-8-18,68.00元,8.6
25849143,佛陀,,【英】凯伦·阿姆斯特朗 著,贤祥,生活·读书·新知三联书店,2014-1,38.00,8.9
26826782,恺撒：巨人的一生,The Life of A Colossue,[英] 阿德里安·戈兹沃西,陆大鹏,社会科学文献出版社·甲骨文,2016-7,89.00元,8.6
1448761,像一块滚石,鲍勃·迪伦回忆录（第一卷）,[美] 鲍勃·迪伦,徐振锋、吴宏凯,江苏人民出版社,2006-1,25.00元,8.3
26323408,我坦言我曾历尽沧桑,,[智利]巴勃罗·聂鲁达,林光,南海出版公司,2015-4,49.50元,8.4
1313181,富兰克林自传,（图文典藏本）,富兰克林,唐长孺,国际文化出版公司,2005年,28.8,8.5
26890735,帕斯捷尔纳克传（上、下）,,[俄罗斯]贝科夫,王嘎,人民文学出版社,2016-9,88.00元,9.4
26879325,杜拉斯谈杜拉斯,悬而未决的激情,[法] 玛格丽特·杜拉斯,缪咏华,广西师范大学出版社,2016-11,36.00,8.5
3111928,安迪·沃霍尔的哲学,波普启示录,[美] 安迪·沃霍尔,卢慈颖,广西师范大学出版社,2011-7,45.00元,8.1
26664352,褚时健传,,周桦,,中信出版集团,2015-12,58.00元,8.9
10522003,艾伦·图灵传,如谜的解谜者,[英] 安德鲁·霍奇斯,孙天齐,湖南科学技术出版社,2012-3-31,59.00元,8.3
3649661,说吧，记忆,自传追述,[美] 弗拉基米尔·纳博科夫,王家湘,上海译文出版社,2009-4,28.00元,8.7
10598170,我不要你死于一事无成,给女儿的17封告别信,[阿富汗] 法齐娅·库菲,章忠建,中信出版社,2012-6,28.00元,8.1
1061029,杜尚访谈录,,[法] 皮埃尔·卡巴纳,王瑞芸,广西师范大学出版社,2001-9,26.80元,8.8
26737210,莫里康内,50年一瞬的魔幻时刻,[意] 埃尼奥·莫里康内 口述、[意] 安东尼奥·蒙达,倪安宇,北京联合出版公司·后浪出版公司,2016-6,42.00元,8.2
26806702,阿尔贝·加缪,一个生命的要素,[意] 埃尼奥·莫里康内 口述、[意] 安东尼奥·蒙达,倪安宇,北京联合出版公司·后浪出版公司,2016-6,42.00元,8.7
1051524,断头王后,玛丽王后的最后岁月,[奥] 斯蒂芬·茨威格,李芳,希望出版社,2009年09月,38.00,8.3
1053174,你干吗在乎别人怎么想？,充满好奇心的费曼,（美）理查德·费曼,李沉简、徐杨,中国社会科学出版社,1999-06,18.00元,8.6
1144865,见证,,[苏] 肖斯塔科维奇 口述、伏尔科夫 记录并整理,叶琼芳,花城出版社,1998-1,23.00元,9.1
5922204,曾国藩的正面与侧面,,张宏杰,,国际文化出版公司,2011-2,39.80元,8.3
5920818,从20万到30亿,特朗普自传,唐纳德·特朗普 (Donald Trump)、托尼·施瓦茨 (Tony Schwartz),尹瑞珉,中国青年出版社,2016-1-1,29.00元,7.1
26431643,吉卜力的风,从《风之谷》到《起风了》,[日] 铃木敏夫,黄文娟,上海译文出版社,2016-3,58.00元,8.3
26801537,山中最后一季,一个将生命、灵魂与激情融入山野的故事,[美] 埃里克·布雷姆,赖盈满、何雨珈,上海社会科学院出版社,2016-8,39.80元,8.7
1191433,我的前半生,,爱新觉罗·溥仪,,群众出版社,2003-04-01,29.00,7.5
1130367,艽野尘梦,,陈渠珍,,西藏人民出版社,2009-1,29.80,8.8
2045811,张国荣的时光,,志摩千岁,,上海书店出版社,2011-12,28.00元,9.0
1499783,将心注入,星巴克创始人，全球董事长霍华德.舒尔茨自述,[美] 霍华德·舒尔茨、[美] 多利·琼斯·扬,文敏,浙江人民出版社,2010-03,25.00,8.3
26427244,我所缄默的事,一位叛逆女儿的回忆,[美] 霍华德·舒尔茨、[美] 多利·琼斯·扬,文敏,浙江人民出版社,2010-03,25.00,8.9
1065156,我生活的种种模式,赫尔伯特·A·西蒙自传,[美] 霍华德·舒尔茨、[美] 多利·琼斯·扬,文敏,浙江人民出版社,2010-03,25.00,8.0
26905279,大人物的世界史,,[英] 西蒙·蒙蒂菲奥里,谷蕾、李小燕,浦睿文化／湖南人民出版社,2016-11,78,7.8
5288371,蒋经国传,,陶涵,林添贵,华文出版社,2016-1-1,59.00元,8.4
1485628,毛泽东传,,[美] 罗斯·特里尔,胡为雄、郑玉臣,中国人民大学出版社,2006-1,55.00元,7.9
1313174,荣格自传,,[瑞士] 荣格,刘国彬、杨德友,国际文化出版公司,2005-6,38.00元,8.5
26667007,思虑20世纪,托尼·朱特思想自传,[瑞士] 荣格,刘国彬、杨德友,国际文化出版公司,2005-6,38.00元,9.1
5437424,杜月笙传（上.中.下）,,章君榖 著、陆京士 校订,,中国大百科全书出版社,2011-1,158.00元,8.0
4741216,我的奋斗,,罗永浩,,云南人民出版社,2010-4,29.00元,7.3
26136989,王阳明大传：知行合一的心学智慧（全三册）,,(日)冈田武彦,钱明 审校、杨田 冯莹莹 袁斌 译,重庆出版社,2015-1,99.00元,8.3
1780208,凯恩斯传,,罗伯特·斯基德尔斯基,相蓝欣、储英,生活·读书·新知三联书店,2006-05,79.00元,8.8
19949881,绝非偶然,社会心理学家阿伦森自传,Elliot Aronson,沈捷,浙江人民出版社,2012-9,42.90元,8.8
26695251,痛苦与狂喜：众神之巅,米开朗基罗传2,[美]欧文·斯通,张晓意、李慧娟,南京大学出版社,2016-3-1,49.50,9.2
26802226,拿破仑大帝,,[英] 安德鲁·罗伯茨（Andrew Roberts）,苏然,社会科学文献出版社·甲骨文,2016-6-1,158.00元,8.4
26310659,莎士比亚,,[英]安东尼·伯吉斯,刘国云,广西师范大学出版社·理想国,2015-6,49.00元,8.9
24541955,史玉柱自述,我的营销心得,优米网,,同心出版社,2013-6-1,42.00元,8.0
2147562,棋与人生,加里·卡斯帕罗夫自传,（俄罗斯）卡斯帕罗夫,谢军、梁自明,中信出版社,2007-7-1,39.00元,8.6
3164123,巴菲特传,一个美国资本家的成长,Roger Lowenstein,蒋旭峰、王丽萍,中信出版社,2008-9,49.00元,8.2
26835452,这就是莫奈,,[英]萨拉·帕普沃斯、奥德·范·莱恩,北寺,天津人民出版社·后浪出版公司,2016-8,60.00元,8.1
6970882,放任自流的时光,一九六零年代的格林威治村， 我与鲍勃·迪伦,[英]萨拉·帕普沃斯、奥德·范·莱恩,北寺,天津人民出版社·后浪出版公司,2016-8,60.00元,8.1
26287433,心若菩提,,曹德旺,,人民出版社,2015-1,49.00,8.8
2364215,此地无人生还,,[美] 杰里·霍普金斯、丹尼·萨格曼,董楠,江苏人民出版社,2008-1,36.00,8.5
2348372,野蛮生长,,冯仑,,中信出版社,2007-12,39.00元,8.3
1752349,胡雪岩（全三册）,胡雪岩第一部,高阳,,生活·读书·新知三联书店,2006-3,68.00元,8.7
1197950,希腊罗马名人传,,（古希腊）普鲁塔克,黄宏煦 主编、陆永庭、吴彭鹏,商务印书馆,1990-11,45.00元,9.1
1418648,胡适口述自传,,胡适 口述、唐德刚 译注,,广西师范大学出版社,2009-7,24.00元,8.4
25803556,山本耀司：我投下一枚炸弹,,[日]山本耀司、[日]满田爱,化斌,重庆大学出版社,2014-2-1,68.00元,7.8
3323311,从文自传,,沈从文,,北京十月文艺出版社,2008-11,29.80元,8.9
26220798,生命不息，折腾不止,,罗永浩,,天津人民出版社,2014-11-18,42.00元,7.7
5408860,风雨哈佛路,一个最贫穷也最勇敢的哈佛女孩,[美] 莉丝·默里,曹植,中信出版社,2011-1,38.00元,8.2
1040397,假如给我三天光明,海伦·凯勒自传,海伦・凯勒(helen keller),李汉昭,华文出版社,2003-1,21.80元,8.1
5411366,林徽因与梁思成,,[美] 费慰梅,成寒,法律出版社,2010-12,28.00,8.5
10531723,爱因斯坦传,,沃尔特•艾萨克森,张卜天,湖南科学技术出版社,2012-1-1,59.00元,8.6
1021346,股票作手回忆录,,沃尔特•艾萨克森,张卜天,湖南科学技术出版社,2012-1-1,59.00元,8.7
1152971,DOOM启世录,,[美] 大卫·卡什诺,孙振南,电子工业出版社,2004-4,29.00元,9.0
3291970,滚雪球（上）,巴菲特和他的财富人生,[美] 艾丽斯·施罗德,覃扬眉、丁颖颖、张万伟、张春明、张艳云,中信出版社,2009-1,39.00,8.0
26861524,The Undoing Project,A Friendship That Changed Our Minds,Michael Lewis,,W. W. Norton & Company,2016-12-6,USD 28.95,8.6
20386243,复眼的影像,我与黑泽明,[日]桥本忍,张嫣雯,中信出版社,2012-12,38.00元,9.1
26804200,希姆莱兄弟,一个德国家庭的故事,[德] 卡特琳 ·希姆莱,吴林昊、裴婷,世界图书出版公司,2016-8-1,45.00,8.6
6868806,出版人,亨利·卢斯和他的美国世纪,[美] 艾伦·布林克利,朱向阳、丁昌建,法律出版社,2011-11,68.00元,8.1
25906749,The Innovators,How a Group of Hackers, Geniuses, and Geeks Created the Digital Revolution,Walter Isaacson,,Simon & Schuster,2014-10-7,USD 35.00,8.2
3155180,荒野生存,,[美]乔恩·克拉考尔、Jon Krauer,欧冶,中国人民大学出版社,2008-07,39.80元,8.6
24738206,曼德施塔姆夫人回忆录,,(俄罗斯)娜杰日达·曼德施塔姆,刘文飞,广西师范大学出版社,2013-9,58.00元,9.0
26930200,孔子归来,,鲍鹏山,新经典文化,新星出版社,2017-1,39,9.3
1035600,福柯的生死爱欲,,詹姆斯·米勒,高毅,上海人民出版社,2003-10,45.80,8.6
3781776,纳博科夫传（上下册）,俄罗斯时期,布赖恩·博伊德,刘佳林,广西师范大学出版社,2009-8,66.00元,9.2
1593586,四十自述,,胡适,,安徽教育出版社,2006-8,13.00元,8.2
3272590,Mises,The Last Knight of Liberalism,Jörg Guido Hülsmann,,Ludwig von Mises Institute,2007-9-4,USD 50.00,8.0
11505704,The Ph.D. Grind,,Jörg Guido Hülsmann,,Ludwig von Mises Institute,2007-9-4,USD 50.00,9.1
26808763,奥古斯都,从革命者到皇帝,[美] 阿德里安·戈兹沃西,陆大鹏,社会科学文献出版社,2016-9,88.00元,8.6
1048173,忏悔录,,卢梭,黎星、范希衡,人民文学出版社,1982-9-1,29.80,8.0
4898553,阿加西自传,,[美] 安德烈·阿加西,刘世东、张奔斗,中信出版社,2010-9,39.00元,9.1
1056164,慈禧全传(六卷八册),,高阳,,中国友谊出版公司,1984-11,120.00元,9.0
4213397,莱昂内往事,,塞尔吉奥·莱昂内、诺埃尔·森索洛,李洋,广西师范大学出版社,2010-1,29.00元,8.9
26834573,这就是凡·高,,[英]乔治·罗达姆 著、[波]施洛瓦·哈拉西莫维奇 插图,吴啸雷,后浪出版公司·天津人民出版社,2016-8,60.00元,8.0
6827362,汉密尔顿,美国金融之父,罗恩·彻诺,应韶荃、姚晨辉、齐宛基,上海远东出版社,2011-8,128.00元,9.4
26852238,维特根斯坦的维也纳,,罗恩·彻诺,应韶荃、姚晨辉、齐宛基,上海远东出版社,2011-8,128.00元,8.3
3071861,周有光百岁口述,,周有光、李怀宇,,广西师范大学出版社,2008-5,28.00元,8.4
25782608,大道当然,我与万科（2000~2013）,王石,,中信出版社,2014-3,49.00元,7.8
26411602,富甲美国,沃尔玛创始人山姆·沃尔顿自传,山姆·沃尔顿、约翰·休伊,杨蓓,江苏文艺出版社,2015-6-1,49.8,8.2
25936051,我的一生,梅厄夫人自传,[以色列]果尔达·梅厄,舒云亮,新星出版社,2014-7,56.00,8.6
24298157,来日方长,阿尔都塞自传,[法]路易·阿尔都塞,蔡鸿滨、陈越,上海人民出版社,2013-5,59.00元,8.9
26871065,祖先,一个家族的千年故事,[美] 秦家骢,舒逊、曼予,北京联合出版公司·后浪出版公司,2016-10,68.00元,8.0
10550571,张纯如,无法忘却历史的女子,张盈盈,,中信出版社,2012-4,49.00元,8.4
25900687,夜,,[美] 埃利·威塞尔,袁筱一,南海出版公司,2014-8,32.00元,8.6
25737804,孤独与团结：阿尔贝·加缪影像集,,[法]卡特琳娜·加缪,郭宏安,译林出版社,2013-11,128.00元,9.1
1006203,工商巨子,洛克菲勒传,[法]卡特琳娜·加缪,郭宏安,译林出版社,2013-11,128.00元,9.3
25956005,亚历克斯·弗格森：我的自传,我的自传,亚历克斯·弗格森 (Alex Ferguson)、保罗·海沃德,虎扑翻译团,北京出版社,2014-8-1,CNY 79.80,8.7
19975229,时间之线,彼得·布鲁克回忆录,(英)彼得·布鲁克,张翔,新星出版社,2013-6,32.00元,8.8
1091203,少年凯歌,,陈凯歌,,人民文学出版社,2001-6,10.00元,8.9
1051231,黄河青山,黄仁宇回忆录,[美] 黄仁宇,张逸安,生活·读书·新知三联书店,2007-2,32.00元,8.3
26740258,弗里达,传奇女画家的一生,[美] 黄仁宇,张逸安,生活·读书·新知三联书店,2007-2,32.00元,8.8
26899255,进击的局座,悄悄话,张召忠,,长江文艺出版社,2016-11-1,42.00,7.9
1435907,我在通用汽车的岁月,斯隆自传,小艾尔弗雷德·斯隆,刘昕,华夏出版社,2005-7,39.00元,8.5
6078123,一路向前,星巴克创始人董事会主席霍华德·舒尔茨亲笔自传,[美] 霍华德·舒尔茨、[美] 乔安·戈登,张万伟,中信出版社,2011-4-1,45.00,7.7
24722098,少年H,,[日] 妹尾河童,张致斌,生活·读书·新知三联书店,2013-11,43.00,9.2
2341866,合肥四姊妹,,[美] 金安平,凌云岚、杨早,生活·读书·新知三联书店,2007-12,28.00元,8.1
1859649,生命的不可思议,胡因梦自传,胡因梦,,东方出版中心,2006-8,28.00元,8.1
5302113,三双鞋,美捷步总裁谢家华自述,[美] 谢家华,[美] 谢传刚,中华工商联合出版社,2011-1,32.90元,8.3
1159949,杰克·韦尔奇自传,,（美）杰克.韦尔奇（Jack Welch）、约翰.拜恩（John A. Byrne）,曹彦博、孙立明、丁浩,中信出版社,2004-5-1,29.00元,7.8
26662477,艺术的逃难,丰子恺传,白杰明 (Geremie Randall Barmé),贺宏亮,浙江人民出版社,2015-12,CNY 68.00,8.9
1482496,一生的故事（全六册）,,[俄] 康·帕乌斯托夫斯基,非琴,河北教育出版社,2001-1,72.00元,9.5
10442281,她比烟花寂寞,,希拉里•杜普蕾、皮尔斯•杜普蕾,黄昱宁、管舒宁,同心出版社,2012-2,39.80元,8.2
1844629,灿烂涅槃,柯特·科本的一生,郝舫,,安徽人民出版社,2006-7,38.00元,8.5
1817332,爱因斯坦谈人生,,(美) 杜卡斯 (H.Dukas)、霍夫曼 (B.Hoffmann),高志凯,世界知识出版社,1984,0.46,8.8
6607708,最高职责,什么才是我们生命中最重要的,切斯利•萨伦伯格,杨元元,万卷出版公司,2011-7-1,59.80元,8.6
24720345,反叛的科学家,,[美]弗里曼·戴森  (Freeman Dyson),肖明波、杨光松,浙江大学出版社,2013-6-1,52.00元,9.0
10563464,总结,毛姆写作生活回忆,(英)威廉·萨默塞特·毛姆,孙戈,译林出版社,2012-7,32.00元,8.8
2979694,赫尔佐格谈赫尔佐格,,（英）保罗·克罗宁,钟轶南、黄渊,文汇出版社,2008-01-01,37.00元,9.2
25911978,知行合一王阳明（1472—1529）,,度阴山,,北京联合出版公司,2014-7-15,36.00,7.6
2146277,一个政治性人物的肖像,,斯台芬·茨威格,张玉书,上海译文出版社,2007年7月,18.00元,9.1
26884352,生命的烤火者：杨绛传,,慕容素衣,,江苏凤凰文艺出版社,2016-10,32.00,9.6
2249020,林徽因传,,张清平,,百花文艺出版社,2007-8,45.00元,7.8
26918822,我眼中的末代皇帝（爱新觉罗•溥杰夫人口述史）,,惠伊深 著,,北京联合出版公司,2016-12-6,39.80,9.6
1868786,列侬回忆,,[美] 扬·温纳,陈维明、马世芳,广西师范大学出版社,2011-3,39.00元,8.0
1142862,拿破仑传,,艾米尔·路德维希,梅沱、徐凯希、张萍、王建华,花城出版社,2005-5-1,32.00元,8.1
24855915,格伦·古尔德谈话录,,乔纳森·科特（Jonathan Cott）、格伦·古尔德（Glenn Gould）,蒋怡,河南大学出版社,2013-5,22.00,9.1
24272636,音乐使人自由,,坂本龙一 (Ryuichi Sakamoto),何启宏,重庆大学出版社,2013-7-1,CNY 48.00,8.1
22790094,玛丽娜·阿布拉莫维奇传,,[英] 詹姆斯·韦斯科特,闫木子,金城出版社,2013-4,48.00元,8.5
24257591,绝望锻炼了我,朴槿惠自传,[韩国]朴槿惠,蓝青荣　等,译林出版社,2013-5,35,7.3
1011673,基耶斯洛夫斯基谈基耶斯洛夫斯基,,(英)达纽西亚﹒斯多克 编,施丽华、王立非,文汇出版社,2003-07,28.00,8.7
24753751,向前一步,女性，工作及领导意志,[美]谢丽尔·桑德伯格（Sheryl Sandberg）,颜筝,中信出版社,2013-6-30,39.00元,8.1
4842446,巨流河,,齐邦媛,,生活·读书·新知三联书店,2010-10,39.00元,8.7
21622634,滚吧，生活,滚石乐队吉他手、建队元老基思·理查兹自传,〔英〕基思•理查兹、〔英〕詹姆斯•福克斯,董楠,新星出版社,2013-5,59.50元,8.9
10876101,不合理的行为,,唐·麦卡林、刘易斯·切斯特,李文吉,广西师范大学出版社,2012-7,49.80元,8.8
1279648,天使在人间,奥黛丽·赫本——儿子对她的记述,[美] 肖恩·赫本·费雷,孙源、张勤、李潇,陕西师范大学出版社,2005-4,40.00元,8.4
26577691,人间采蜜记,李银河自传,李银河,,江西人民出版社,2015-8-10,CNY 32.00,7.5
1097835,名人传,,罗曼·罗兰,傅雷,译林出版社,2001-9,20.50元,8.0
1001848,格格不入,萨义德回忆录,[美] 爱德华·W. 萨义德,彭淮栋,生活·读书·新知三联书店,2004-12,26.00元,8.4
25986499,奥斯卡·王尔德传,全二册,[美] 理查德·艾尔曼,萧易,广西师范大学出版社,2015-1,118.00元,8.7
26394190,鹿特丹的伊拉斯谟,辉煌与悲情,[奥] 斯蒂芬·茨威格,舒昌善,生活·读书·新知三联书店,2016-4,35,9.0
10522595,在緬甸尋找喬治歐威爾,,艾瑪．拉金,黃煜文,衛城出版社,2012-3-9,TWD 320,8.4
6838389,Why Be Happy When You Could Be Normal?,,Jeanette Winterson,,Jonathan Cape,2011-10-27,GBP 14.99,9.0
26898190,日本制造,盛田昭夫的日式经营学,[日] 盛田昭夫、[日] 下村满子,周征文,中信出版集团,2016-12-10,58.00,8.3
25831297,迈克尔·乔丹与他的时代,,张佳玮,,华东师范大学出版社,2014-4,49.80,8.4
26331783,宋家客厅,从钱锺书到张爱玲,宋以朗、陈晓勤,花城出版社,铁葫芦图书,2015-4-1,38.00,7.7
26840136,惊悦,C.S.刘易斯自传,[英] C.S.刘易斯,丁骏,上海文艺出版社,2016-8,39.00元,8.1
4744046,趣味横生的时光,我的20世纪人生,[英] 艾瑞克.霍布斯鲍姆,周全,中信出版社,2010-03,39.00元,8.3
26576518,我的晃荡的青春,,[日]东野圭吾,代珂,南海出版公司,2015-9,35.00元,7.0
26926618,史蒂夫·乔布斯传（漫画版）,我可以改变世界,[美] 杰茜•哈特兰,,赵轩,中信出版社,2016-12-1,9.3
2215698,司马迁之人格与风格,,李长之,,天津人民出版社,2007-4,26.80元,8.4
2372087,剥洋葱,君特·格拉斯回忆录,[德国] 君特·格拉斯,魏育青、王滨滨、吴裕康,译林出版社,2008-1,28.00元,8.3
26901112,一个知识分子的政治理想,,[法]伊丽莎白·巴丹德、[法]罗贝尔·巴丹德,马为民、廖先旺 张祝基,华东师范大学出版社,2016-12,55,9.3
1916614,我，十三岁，妓女，吸毒者……,,[西德] 凯·赫尔曼、霍斯特·里克 整理,戴明沛 等,作家出版社,1988-4,2.45元,7.8
26220259,褚时健：影响企业家的企业家,影响企业家的企业家,先燕云、张赋宇,,湖南文艺出版社,2014-11,45.00元,8.3
5920388,李光耀：新加坡赖以生存的硬道理,,Singapore: Straits Times Press,,Singapore: Straits Times Press,2011-1,39新元,9.1
2125593,克里希那穆提传,,普普尔·贾亚卡尔,胡因梦,深圳报业集团出版社,2007-5,58.00元,8.6
1228098,魔灯,伯格曼自传,[瑞典] 英格玛·伯格曼,刘森尧,广西师范大学出版社,2005-1,22.00元,8.4
11597383,一个女人的自传,,杨步伟,,广西师范大学出版社,2014-7,40.00,8.5
1050349,上海的金枝玉叶,,陈丹燕,,作家出版社,1999,20.00,8.1
4186640,我也是鲁迅的遗物,朱安传,乔丽华,,上海社会科学院出版社,2009,30.00元,7.7
5033915,希特勒传（上下册）,从乞丐到元首,约翰·托兰,,国际文化出版公司,2010-9,59.80元,8.4
4931700,创新的先知,约瑟夫·熊彼得传,[美] 托马斯·麦克劳,陈叶盛、周端明、蔡静,中信出版社,2010-11,80.00元,9.1
2243692,潜水钟与蝴蝶,,[法] 让-多米尼克·鲍比,邱瑞銮,南海出版公司,2007-9,20.00元,7.8
1079076,激情岁月,郎平自传,郎平、陆星儿,,东方出版中心,1999-09,25.00,8.3
4137182,荣辱二十年,我的股市人生,阚治东,,中信出版社,2010-1-1,38.00元,8.3
26794006,撒切尔夫人,权力与魅力,乔纳森·艾特肯,姜毓星、罗小丽,重庆出版社,重庆出版集团,2016-6,99.00元,9.3
1025384,墓中回忆录,,[法] 夏多布里昂,郭宏安 选译,生活·读书·新知三联书店,1997-4,12.80元,8.1
3292060,滚雪球（下）,巴菲特和他的财富人生,[美] 艾丽斯·施罗德,覃扬眉、丁颖颖、张万伟、张春明、张艳云,中信出版社,2009-1,39.00,8.1
6510070,人生不设限,我那好得不像话的生命体验,Nick Vujicic,彭蕙仙,天津社会科学出版社,2011-6-15,29.80元,8.3
25944034,菊次郎与佐纪,,[日]北野武,陈宝莲,译林出版社,2015-2,29,8.6
6311580,天堂十字路口,埃里克·克莱普顿自传,[英] 埃里克·克莱普顿,陈震、鸟儿,上海人民出版社,2011-8,36.00元,8.7
10608244,荒野求生,Discovery频道户外主持人贝尔唯一授权自传,[英] 贝尔•格里尔斯,夏小正,同心出版社,2012-5-1,48.00元,8.4
6982715,雷蒙德·卡佛,一位作家的一生,(美)卡萝尔·斯克莱尼卡,戴大洪、李兴中,龙门书局,2011-12,48.00元,8.6
20537674,先知三部曲（全新插图修订本）,武装的先知：托洛茨基  1879—1921；被解除武装的先知：托洛茨基  1921—19,[波]伊萨克•多伊彻,王国龙、周任辛、施用勤、张冰、刘虎,中央编译出版社,2013-2,258.00元,9.2
26468042,温德先生,亲历中国六十年的传奇教授,[美]伯特·斯特恩,马小悟、余婉卉,北京大学出版社,2016-1,58.00,7.4
1487995,文字生涯,,让-保尔·萨特,沈志明,人民文学出版社,2006-01-01,13.00元,8.5
1323573,美丽心灵,纳什传,[美] 西尔维娅·娜萨,王尔山,上海科技教育出版社,2005-4,45.00元,8.7
3088334,香奈儿的态度,,[法] 保罗·莫朗,段慧敏,南京大学出版社,2008-3,36.00元,7.8
1926728,往事与随想,,(俄)赫尔岑,项星耀,人民文学出版社,1993-5,77.00,9.3
25859093,自由的老虎,,沈诞琦,,中国华侨出版社,2014-4,32.80,7.2
1051314,钢琴师,二战期间华沙幸存记,(波)瓦迪斯瓦夫.什皮尔曼,,人民文学出版社,2004-1,12.00,9.0
1418650,胡适杂忆,,唐德刚,,广西师范大学出版社,2005-08-01,22.00,8.5
6886415,肖斯塔科维奇回忆录,,肖斯塔科维奇、所罗门·伏尔科夫,叶琼芳,外文出版局,1981,1.20元,9.2
24845545,阿桑奇自传,不能不说的秘密,朱利安·阿桑奇,任海龙、常江,译林出版社,2013-7,38.00,8.0
1428309,数学大师,从芝诺到庞加莱,E·T·贝尔,徐源,上海科技教育出版社,2004-12,46.50元,8.8
1884249,当我们旅行,Lonely Planet的故事,[澳] 托尼·惠勒、莫琳·惠勒,杨桦,生活·读书·新知三联书店,2006-10,21.00元,8.0
25982113,摇滚不死,尼尔·杨自传,(加) 尼尔·杨,陈震,中国人民大学出版社,2014-11,58元,8.5
6905341,贝聿铭全集,,（美）朱迪狄欧（Jodidio,P.）+（美）斯特朗（Strong,J.A.）著,李佳洁、郑小东,电子工业出版社,2012-1-1,198.00元,9.1
25723799,野心优雅,任志强回忆录,任志强,,江苏文艺出版社,2013-9,58.00元,7.7
1002474,只有偏执狂才能生存,,[美] 安迪·格鲁夫,安然,中信出版社 辽宁教育出版社,2002-8,22.00元,7.7
26109489,我是马拉拉,,【巴基斯坦】马拉拉,翁雅如、朱浩一,四川人民出版社,2014-10-31,38.00元,8.2
11507862,独自上场,,李娜,,中信出版社,2012-8,39.00元,8.2
25811785,莫奈和他的眼睛,,张佳玮,,译林出版社,2014-3,36.80,7.4
25933324,我幻想着粉碎现有的一切：苏珊•桑塔格访谈录,,[美]乔纳森•科特,唐奇,中国人民大学出版社,2014-7,35.00元,8.4
21363236,寻找•苏慧廉,传教士和近代中国,沈迦,,新星出版社,2013-3-25,48.00元,8.8
2990595,富兰克林传,一个美国人的一生,(美)沃尔特·艾萨克森,杨颖,中国社会出版社,2008-01-01,38.00元,8.2
5355285,编程人生,15位软件先驱访谈录,Peter Seibel,图灵俱乐部,人民邮电出版社,2011-1-1,79.00元,8.4
26844660,经典摇滚音乐指南·齐柏林飞艇,,[英] 英国UNCUT编辑部,乐童翻译组—张守佳,北京联合出版公司,2016-8,68.00元,9.4
4860552,活着就为改变世界,史蒂夫·乔布斯传,[美] 杰弗里·扬、威廉·西蒙,蒋永军,中信出版社,2010-6,39.00元,7.1
4258923,穿越歧路花园,司马贺传,亨特·克劳瑟-海克,黄军英、蔡荣海、任洪波 等,上海科技教育出版社,2009-12,35.00元,9.0
3055477,西潮,,蒋梦麟,,天津教育出版社,2008-4,22.00元,8.4
1777410,我，费利尼,,[美]夏洛特•钱德勒,黄翠华,广西师范大学出版社,2006.04.01,35.00,8.7
2140496,幸福的拾荒者,,胡歌,,接力出版社,2007-6-1,28.00元,8.5
6735536,小脚与西服,张幼仪与徐志摩的家变,张邦梅,谭家瑜,黄山书社,2011-9,28.00元,8.5
5338233,我的法兰西岁月,美国厨神茱莉亚·查尔德的美味人生,[美] 茱莉亚·查尔德、[美]亚历克斯·普鲁多姆,苏西,重庆出版社,2010-11-01,26.80,8.3
25886167,武人琴音,,徐皓峰、徐骏峰,,人民文学出版社,2014-4,29.00,8.6
1480812,思考与回忆,俾斯麦回忆录（全三卷）,［德］奥托·冯·俾斯麦,杨德友、同鸿印,生活·读书·新知三联书店,2006-2,59.80,8.5
25777982,在难搞的日子笑出声来,,大鹏,,北京联合出版公司,2014-1-12,39.8元,7.6
4238939,吴敬琏传,一个中国经济学家的肖像,吴晓波,,中信出版社,2010-02,39.00元,8.1
1049215,借我一生,,余秋雨,,作家出版社,2004-08,42.00元,7.5
2139493,宽客人生,华尔街的数量金融大师,Emanuel Derman,张戬,中信出版社,2007-7,38.00元,8.0
3227346,听杨绛谈往事,,吴学昭,,生活·读书·新知三联书店,2008-10,29.00,8.1
6429292,杜甫,中国最伟大的诗人,(美) 洪业,曾祥波,上海古籍出版社,2011-9,68.00元,8.9
26596019,The Invention of Nature,Alexander von Humboldt's New World,Andrea Wulf,,Knopf,2015-9-15,USD 30.00,9.3
10521316,满是镜子的房间,吉米•亨德里克斯传,查尔斯•R. 克罗斯（Charles R. Cross）,董楠,南京大学出版社,2012-2,32.00元,8.3
26590901,一百年漂泊,台湾的故事,杨渡,,生活·读书·新知三联书店,2016-1,48.00,8.5
11541383,沙漠之花,世界名模华利斯·迪里自传,【奥地利】华利斯·迪里,赵为,漓江出版社,2012-9,28.00元,8.7
1828292,黑暗时代的人们,,汉娜·阿伦特,王凌云,江苏教育出版社,2006-7,24.00元,8.6
1790005,蒙面骑士,墨西哥副司令马科斯文集,戴锦华、刘健芝 主编,,上海人民出版社,2006-6,45.00元,8.6
10453633,蓝围巾男人,为卢西安·弗洛伊德做模特,马丁·盖福特,,赵琦,2012-1,78.00元,8.7
25766700,一网打尽,贝佐斯与亚马逊时代,[美]布拉德·斯通,李晶、李静,中信出版社,2014-1-15,49.00元,7.5
3320904,蒙田,,[奥]斯蒂芬·茨威格,舒昌善,生活·读书·新知三联书店,2008-12,18.00,8.5
2129831,美与暴烈,三岛由纪夫的生与死,[英] 亨利·斯各特·斯托克斯,于是,上海书店出版社,2007-7,33.00元,8.2
26368561,薄薄的故乡,,王小帅,重庆大学出版社,楚尘文化,2015-5,48.00元,8.3
26214387,安·兰德传,生平与思想,刘仲敬,,商务印书馆,2015-1,38.00,8.2
26847644,苏东坡传,,林语堂,,湖南文艺出版社,2016-6,28.00,8.9
2604801,我的一个世纪,,董竹君,,生活·读书·新知三联书店,2008-1,39.80元,8.0
26840483,Hillbilly Elegy,A Memoir of a Family and Culture in Crisis,J. D. Vance,,Harper,2016-6-28,USD 27.99,8.2
22542435,我是开豆腐店的，我只做豆腐,,[日] 小津安二郎,陈宝莲,南海出版公司,2013-6-1,29.50元,7.6
1808679,再造文明的尝试,胡适传（1891-1929）,罗志田,,中华书局,2006-06,35.00,8.6
1065485,玛丽·斯图亚特,苏格兰女王的悲剧,[奥] 斯蒂芬·茨威格,候焕闳,生活·读书·新知三联书店,1996-3,18.80,8.6
24755703,流放的灵魂：索尔仁尼琴,,(英)约瑟夫·皮尔斯,张桂娜,上海三联书店,2013-9-1,48.00元,8.5
6712293,宽客,华尔街顶级数量金融大师的另类人生,[美] 斯科特•帕特森,卢开济、译科,中国人民大学出版社,2011-7,56.00元,8.1
1812833,穷人的银行家,,(孟加拉)尤努斯著,吴士宏,生活·读书·新知三联书店,2006-6-1,21.50元,8.7
25997023,亚历山大·麦昆,,[英] 朱迪斯·沃特,邓悦现,重庆大学出版社,2014-10-1,88.00元,7.7
10546136,我的兄弟王小波,,王小平,,江苏文艺出版社,2012-5,28.00元,8.3
26369908,北野武自述,无聊的人生，我死也不要,[日]北野武、[法]米歇尔·特曼,贾翊君,上海人民出版社,2015-8,39.00元,7.4
1982116,我与兰登书屋,贝内特·瑟夫回忆录,贝内特·瑟夫,彭伦,人民文学出版社,2007年2月,30.00,8.4
1474527,漫漫自由路,曼德拉自传,纳尔逊·曼德拉,谭振学,山东大学出版社,2005-8,58.00元,8.5
3267519,李普曼传,,【美】罗纳德·斯蒂尔,于滨、陈小平、谈锋,中信出版社,2008-11,68.00元,8.4
10740093,斯坦纳回忆录,审视后的生命,(美)乔治·斯坦纳,李根芳,浙江大学出版社,2012-7,34.00元,8.9
26827326,行走在非洲丛林,,[德]阿尔伯特·史怀哲,罗玲,外语教学与研究出版社,2016-6,35,8.7
10809708,关于一个孩子,涅槃的故事,麦克尔•阿泽拉德(Michael Azerrad),黄小猩,南京大学出版社,2012-7,36.00元,8.3
25872623,加西亚·马尔克斯传,,[英] 杰拉德·马丁,陈静妍,中信出版社,2014-6-15,68.00元,8.4
2326230,我的精神自传,,钱理群,,广西师范大学出版社,2007-12,35.00元,8.6
26756122,我是你的莫扎特：莫扎特书信集,,[奥]沃尔夫冈·莫扎特,钱仁康、阳军编选,中国财政经济出版社,2016-2,48.00,9.1
2267345,我，克劳迪亚斯,,[英] 罗伯特·格雷夫斯,[英] 田淑秀,中国友谊出版公司,1986-12,3.20,9.2
1482625,德兰修女传,在爱中行走,华姿,,山东画报出版社,2005-12,20.00元,8.8
1077119,荒谬的真实,戴安・阿勃丝传奇的一生,孙京涛,,山东画报出版社,2004-02,30.00,8.5
21241284,我穿越疯狂的旅程,一个精神分裂症患者的故事,[美] Elyn R.Saks,李慧君、王建平,中国轻工业出版社,2013-2,40.00元,8.9
6847760,随遇而安,,孟非,,浙江文艺出版社,2011-10,32.80元,7.2
1001953,张居正大传,,朱东润,,百花文艺出版社,2000-10-1,22.00元,8.2
26718687,双脑记,认知神经科学之父加扎尼加自传,[美] Michael S. Gazzaniga,罗路,北京联合出版公司,2016-2-29,89.90,8.0
26420844,玛丽莲·梦露：我的故事,,[美] Michael S. Gazzaniga,罗路,北京联合出版公司,2016-2-29,89.90,7.9
6013381,舍我其谁：胡适（第一部）,璞玉成璧，1891-1917,江勇振,,新星出版社,2011-4,88.00元,8.4
26847493,俄罗斯的良心:索尔仁尼琴传,索尔仁尼琴传,乔治·尼瓦,孙超,新星出版社,2016-8,49.00元,8.0
1791839,乔伊斯传（上下册）,,[美] 理查德·艾尔曼,金隄、王振平、李汉林,北京十月文艺出版社,2006-2,68.00元,9.4
11601304,梁启超传,,解玺璋,,上海文化出版社,2012-9,72.80元,7.9
1010866,我的最后一口气,布努艾尔自传,（西）路易斯・布努艾尔,刘森尧,广西师范大学出版社,2003-07,17.80,8.6
26353581,成龙：还没长大就老了,,成龙、朱墨,,江苏凤凰文艺出版社,2015-4-1,CNY 49.80,7.4
1036793,杜拉斯传,,[法]劳拉·阿德莱尔,袁筱一,春风文艺出版社,2000-01-01,36.00,8.0
3894806,等云到,与黑泽明导演在一起,（日）野上照代,吴菲,上海人民出版社,2010年1月,28.00元,8.2
7045735,可可·香奈儿的传奇一生,,[英] Justine Picardie,郭昌京、张宏、邵志杰、李庆,广西科学技术出版社有限公司,2011-11-1,68.00元,7.9
1007313,留德十年,,季羡林,,中国人民大学出版社,2004-11,18.80,8.4
1859140,上学记,,何兆武 口述、文靖 撰写,,生活·读书·新知三联书店,2006-8,19.80元,8.8
1395123,乐者为王,自由软件Linux之父李纳斯·托沃兹自述,[美] 李纳斯·托沃兹、大卫·戴蒙,王秋海 等,中国青年出版社,2001-7,20.00元,8.0
3605216,小津,,[美] 唐纳德·里奇,连城,上海译文出版社,2009-4,32.00,8.3
4720006,峭壁边缘,拯救世界金融之路,亨利·保尔森,乔万涛,中信出版社,2010-4,49.00元,8.0
4882550,被世界遗忘的天才,特斯拉回忆录,[美]尼古拉·特斯拉,王晓佳,法律出版社,2010.7,18.00元,7.7
1474432,孤独的猎手,卡森·麦卡勒斯传,[美]弗吉尼亚·斯潘塞·卡尔,冯晓明,上海三联书店,2006年1月,56.00元,8.3
1034248,雍正传,,冯尔康,,人民出版社,1985-09,29.70元,8.7
21355964,生活的艺术家,,李小龙、[美]约翰·里特(编辑整理),刘军平,北京联合出版公司·后浪出版公司,2013-4,32.00元,8.2
1011509,谁说大象不能跳舞？,IBM董事长郭士纳自传,郭士纳,张秀琴等,中信出版社,2003-01,25.00,7.8
3905365,水流云在,英若诚自传,英若诚、康开丽,张放,中信出版社,2009-9-1,32.00元,8.5
5935614,杜尚传,,王瑞芸,,广西师范大学出版社,2011-1-15,48.00元,8.6
1702664,丘吉尔文集:思想与经历,,(英)温斯顿.S.丘吉尔,,江苏人民出版社,1999-01,11.0,9.1
6101204,一问一世界,,杨澜、朱冰,,江苏人民出版社,2011-4,32.00元,7.2
1140492,奥威尔传,,（美）杰弗里·迈耶斯,孙仲旭,东方出版社,2003-11,36.00元,7.9
1143930,毛泽东传,,菲力普·肖特,仝小秋,中国青年出版社,2004-1,60.00元,8.2
1000325,人·岁月·生活（全三册）,爱伦堡回忆录,[俄] 伊利亚·爱伦堡,冯江南、秦顺新,海南出版社,1999-10,88.00元,8.8
25886627,英格兰之梦,朋克、性手枪、无政府主义和超越,[英]乔 萨维奇,,王知夏,上海三联书店,94.00元,9.4
25925760,再见杨德昌,台湾电影人访谈纪事,王昀燕,,商务印书馆,2014-9,75.00,8.6
25843679,陀思妥耶夫斯基（第1卷）,反叛的种子：1821—1849,[美] 约瑟夫·弗兰克,戴大洪,广西师范大学出版社,2014-6,68.00元,8.8
1782150,武则天,,(日）原百代,谭继山、高阳,中国友谊出版公司,1985,49,8.6
6065841,玛丽娜·茨维塔耶娃（全三册）,生活与创作,[俄] 安娜·萨基扬茨,谷羽,广西师范大学出版社,2011-6,115.00元,8.5
11531722,希特勒的私人图书馆,那些改变了他一生的书,[美]提摩西·赖贝克（Timothy W. Ryback）,孙韬,金城出版社,2012-12,48.00元,7.5
10440415,傅斯年：中国近代历史与政治中的个体生命,,王汎森,王晓冰,生活·读书·新知三联书店,2012-5,45.00元,8.9
2051788,流浪王妃,,爱新觉罗 浩,,北京十月文艺出版社,1985-12,1.2,8.6
10541710,老头儿汪曾祺,我们眼中的父亲,汪朗、汪明、汪朝,,中国青年出版社,2012-1,49.60元,8.9
25903198,做衣服,破坏时尚,汪朗、汪明、汪朝,,中国青年出版社,2012-1,49.60元,7.8
6080028,黑石的起点，我的顶点,黑石创始人彼得·彼得森自传,[美] 彼得·彼得森,施轶,万卷出版公司,2011-4,56.00元,7.8
6039418,無限的網,草間彌生自傳,草間彌生,鄭衍偉,木馬文化事業有限公司,2011-3-31,NTD320元,8.6
3035631,康德传,,[美]曼弗雷德·库恩,黄添盛,世纪出版集团 上海人民出版社,2008-4,56.00元,8.5
5937120,叔本华及哲学的狂野年代,,吕迪格尔.萨弗兰斯基,钦文,商务印书馆,2010-12,37.00元,9.2
4867187,稻盛和夫自传,,[日]稻盛和夫,陈忠,华文出版社,2010-6-1,39.80元,8.0
22196844,我知道笼中鸟为何歌唱,,[美] 玛雅•安吉洛,于霄、王笑红,上海三联书店,2013-4-23,35.00,8.5
25815673,穷途，墨路,,(美)保罗·奥斯特,于是,浙江文艺出版社,2014-3,18.00元,7.6
1394395,歌舞伎町案内人,,李小牧,,中国友谊出版公司,2005年5月第1版第1次印刷,28.00,7.6
1016832,我负丹青,吴冠中自传,吴冠中,,人民文学出版社,2004-06,39.00元,8.4
25904562,伦勃朗1642,,张佳玮,,译林出版社,2014-7,CNY 32.80,7.8
10494251,塔莎的世界,,(美)塔莎·杜朵 著、理查德·布朗 摄,韩玲,中国城市出版社,2012-4,45.00元,8.6
26400900,创京东,刘强东亲述创业之路,李志刚,,中信出版社,2015-5-1,CNY 49.80,7.2
2283665,来自德国的大师,海德格尔和他的时代,吕迪格尔·萨弗兰斯基,靳希平,商务印书馆,2007-8,35.00元,9.2
1863619,与他共度61世,张国荣的电影生命,的灰,,上海书店出版社,2006-9,128.00元,9.3
26816164,盗火与革命,,余世存,铁葫芦,北京联合出版公司出版,2016-7-1,42.00,8.0
26705854,无愁河的浪荡汉子·八年（上卷）,,黄永玉,,人民文学出版社,2016-1-1,CNY 58.00,9.1
1000425,花旗帝国,金融奇才桑迪·韦尔传奇,（美）莫尼卡•兰利,刘晶晶,中信出版社,2005-01,38.00,8.0
3645098,生活在音乐中,巴伦博伊姆自传,丹尼尔·巴伦博伊姆,朱贤杰,上海音乐出版社,2009-3,45.00元,8.6
1437908,知无涯者,拉马努金传,罗伯特·卡尼格尔,胡乐士、齐民友,上海科技教育出版社,2002-10,33.30元,8.6
26850028,阿里巴巴,马云和他的102年梦想,邓肯·克拉克 (Duncan Clark),,中信出版社,2016-8-22,CNY 58.00,8.5
1042434,安妮日记,,安妮.弗兰克,彭淮栋,海南出版社,1996-12,19.8,8.0
2363716,破土,生活与建筑的冒险,[美] 丹尼尔·李布斯金,吴家恒,清华大学出版社,2008-1,46.00元,8.5
1225982,束星北档案,一个天才物理学家的命运,刘海军,,作家出版社,2005-01,36.00元,8.7
21965538,披头士（上下册）,,鲍勃·施皮茨,董楠,江苏人民出版社,2013-3-1,69.00元,8.7
3605924,滚雪球,巴菲特和他的财富人生,[美]艾丽斯·施罗德,,中信出版社,2009-01-01,198.00元,7.7
10456882,波德莱尔,,[法]帕斯卡尔•皮亚,何家炜,上海人民出版社（北京世纪文景出品）,2012-3-1,32.00元,8.4
26387863,八道湾十一号,,黄乔生,,生活·读书·新知三联书店,2015-7,44元,8.3
1464442,道路与梦想,我与万科20年,王石、缪川,,中信出版社,2006-1,36.00元,7.6
25876391,西雅图之声,一部关于垃圾摇滚的口述史,[美]马克亚姆,牛唯薇,上海三联书店,2014-5-15,94.00元,8.6
25883310,伊丽莎白女王,,(英) 艾莉森·威尔,董晏廷,社会科学文献出版社,2014-8-1,79.00元,7.8
25844463,摩根财团,美国一代银行王朝和现代金融业的崛起（1838～1990）,[美]罗恩·彻诺(Ron Chernow),金立群,江苏文艺出版社,2014-4-24,198.00,8.8
1021456,我怎样设计飞机,美国飞机设计师凯利·约翰逊自传,[美] 凯利·约翰逊、玛吉·史密斯,程不时、赵中,航空工业出版社,1990-05,3.70元,8.5
10467105,感动，如此创造,日本电影配乐大师久石让的音乐梦,[日] 久石让,何启宏,中信出版社,2012-3,38.00元,8.1
1949026,影海生涯(上、下),,李翰祥,,农村读物出版社,1987-08,8.90 元,8.9
25697240,生命的思索：史怀哲自传,,[德]史怀哲,赵燕飞,长江文艺出版社,2013-9-1,42.80元,8.2
11527058,先生,展民国十大先生风骨，为当今教育立镜一面，呼喊十声！傅国涌、熊培云,《先生》编写组,,中信出版社,2012-8,39.00元,8.2
24870782,青年王阳明：行动中的儒家思想（杜维明作品系列）,行动中的儒家思想,杜维明,,生活·读书·新知三联书店,2013-6,29.00,8.3
3994721,纳兰容若词传,,夏如意、毛晓雯、苏缨,,江苏文艺出版社,2009-9,28.00元,8.0
26584842,布鲁斯往事,巴迪·盖伊自传,巴迪·盖伊、大卫·瑞兹,陈震,中国人民大学出版社,2015-8,49.00元,9.1
1075776,张爱玲传,,余斌,,广西师范大学出版社,2000-01,24.80,7.7
2078883,毕加索的成败,,约翰·伯格,连德诚,广西师范大学出版社,2007,25.00元,8.3
2142687,张学良口述历史,,张学良 口述、唐德刚 撰写,,中国档案出版社,2007-7,25.00元,7.3
6872019,黄瓜的黄 西瓜的西,,黄西,,中信出版社,2011-11-26,29.00元,6.8
1400710,读史阅世六十年,,何炳棣,,广西师范大学出版社,2009-3,39.80元,8.3
3574418,张国荣：禁色的蝴蝶,,洛枫,,广西师范大学出版社,2009-3,38.00,8.7
10465902,镜子外的福尔摩斯,最伟大的福尔摩斯扮演者杰里米·布莱特,[英]大卫·斯图亚特·戴维斯,王海燕,新星出版社,2012-3,28.00元,8.8
26871302,西太后：薇薇安·威斯特伍德,,[英] 薇薇安·威斯特伍德、[英] 伊恩·凯利,倪玲玲,长江文艺出版社,2016-10,88.00元,7.8
6039246,国王的演讲,,[英] 马克·罗格、彼得·康拉迪,莎伦荻、吴果锦,天津社会科学院出版社,2011-4,32.80元,7.7
25786645,乔纳森传,首次聚焦苹果首席设计师,利恩德·卡尼,汪琪  岳卉  王文雅,中信出版社,2014-1-1,49,7.3
25804656,1913,世纪之夏的浪荡子们,（德）弗洛里安·伊利斯,续文,译林出版社,2014-3,32,7.5
1062274,黄永玉自述,,黄永玉,,大象出版社,2004-02,28.50,8.2
26706519,黄柳霜,从洗衣工女儿到好莱坞传奇,[美]郝吉思,王旭、李文硕、杨长云,北京联合出版公司·后浪出版公司,2016-2,49.80元,8.1
26278990,逝年如水,周有光百年口述,周有光,,浙江大学出版社,2015-2-1,88.00元,8.6
1958741,追逐日光,,[美] 尤金·奥凯利,蒋旭峰,中信出版社,2007-1,26.00元,7.8
2086099,福楼拜评传,,李健吾,,广西师范大学出版社,2007-5,32.80元,9.2
3427928,契诃夫的一生,内米洛夫斯基经典作品系列,伊莱娜·内米洛夫斯基,陈剑,人民文学出版社,2009-1,17.00元,8.8
26733295,永不后退,迈克·泰森唯一自传,[美]迈克.泰森、[美]拉里.斯洛曼,傅婧瑛,北京联合出版社,2016-3,68.00,8.7
26873136,画在人心的苦闷上,李宗陶艺术访谈录,李宗陶,,鹭江出版社,2016-10,58.00,8.3
4175473,波斯少年,,[英] 玛丽·瑞瑙特,郑远涛,上海人民出版社,2010-8,29.80元,8.6
5398106,林肯与劲敌幕僚,,多丽丝·科恩斯·古德温,尤以丁,上海人民出版社,2010-12,58.00元,9.1
1017848,杂记赵家,,杨步伟,,辽宁教育出版社,1998-3,9.20元,8.2
25731990,我是落花生的女儿,,许燕吉,,湖南人民出版社,2013-10-1,39.80元,8.3
3891385,制造伍德斯托克,一个关于骚动、音乐会和人生的真实故事,埃利奥特·提伯、汤姆·蒙特,吴冰青,译林出版社,2009-8,28.00元,8.1
26779398,WKW,The Cinema of Wong Kar Wai,Wong Kar Wai、John Powers,,Rizzoli International Publications,2016-4-19,USD 65.00,9.6
1270551,八十忆双亲 师友杂忆,,钱穆,,生活·读书·新知三联书店,2005-03,22.50元,9.0
20280677,百岁忆往,,周有光,,生活·读书·新知三联书店,2012-10,25.00元,8.3
26758026,温家宝地质笔记,,温家宝,,地质出版社,2016-3-1,CNY 86.00,8.0
26363418,我坚信,,[美]奥普拉·温弗瑞（Oprah Winfrey）,陶文佳,北京联合出版公司,2015-5,45.00元,7.2
1506961,西行漫记,红星照耀中国,（美）埃德加·斯诺,董乐山,生活.读书.新知三联书店,1979年,1.30,8.4
5979642,男人,,[意] 奥里亚娜·法拉奇,毛喻原,上海三联书店,2011-2,39.80元,8.8
1450049,解读希特勒,,（德）塞巴斯蒂安·哈夫讷,景德详,中国青年出版社,2005-9,20.00元,8.4
26925239,那些年，我们一起追的球星Ⅱ,青春如梦，终极珍藏,《天下足球》,,长江文艺出版社,2017-1-1,82.00,9.7
1069249,卓别林自传,一生想过浪漫生活,[英] 查理·卓别林,叶冬心,国际文化出版公司,2010-04,48.00,8.2
26737134,就要一场绚丽突围,30岁后去留学,范海涛,,机械工业出版社,2016-3-7,CNY 42.00,8.0
3673771,项塔兰,,[澳] 格里高利·大卫·罗伯兹,黄中宪,华文出版社,2009-4,58.00,9.0
3722970,波伏娃：激荡的一生,,（法）弗朗西斯、（法）贡蒂埃,唐恬恬,广西师范大学出版社,2009.7,38.00元,7.8
26866570,你的建筑有多重？,建筑大师诺曼·福斯特,[英]迪耶·萨迪奇,张茂芸,理想国 | 广西师范大学出版,2016-8,39.00元,8.1
25957401,从不妥协：法拉奇传,,（意）克里斯蒂娜•德•斯特凡诺,陈晗奕、魏然然,新星出版社,2014-8,48.00,8.1
3604958,唐宁街岁月,撒切尔夫人自传,玛格丽特·撒切尔,李宏强,国际文化出版公司,2009-5,69.00元,8.1
25737866,梵高生活,,丰子恺 编著,,新星出版社,2013-11-1,35.00元,7.4
1899787,希尔伯特,数学世界的亚历山大,[美] 康斯坦丝·瑞德,袁向东、李文林,上海科技出版社,2006-7,26.00元,8.7
2365288,波兰斯基回忆录,,（法）罗曼·波兰斯基,喇培康,新星出版社,2008-1,32.00,8.3
2002938,费曼的彩虹,物理大师的最后24堂课,里昂纳德·曼罗迪诺,陈雅云,陕西师范大学出版社,2007-1,18.00元,8.3
4270905,人生舞台,阿西莫夫自传,[美] 艾萨克·阿西莫夫,黄群、许关强,上海科技教育出版社,2009-12,61.00元,9.0
26882979,且以优雅过一生,杨绛传,桑妮,,湖南文艺出版社,2016-9,32.00,7.9
23788376,门将之死,罗伯特恩克的故事,[德]罗纳德•伦,张力,上海译文出版社,2013-5-31,42.00,9.0
25961281,格蕾丝传,,[德]罗纳德•伦,张力,上海译文出版社,2013-5-31,42.00,7.8
10537637,行走中的玫瑰,,闾丘露薇,,时代文艺出版社,2012-4,32.80元,7.6
3905263,罗斯柴尔德家族.第1部,金钱的先知,尼尔·弗格森,顾锦生,中信出版社,2009-9,39.00元,7.6
1054092,罗素自传（第一卷）,1872-1914,[英] 伯特兰·罗素,胡作玄、赵慧琪,商务印书馆,2002-1,22.00元,8.1
25802595,灵魂有香气的女子,26个女神的故事,李筱懿,,江苏文艺出版社,2013-12-31,32.00元,7.3
25773535,迈尔斯·戴维斯自传,一代爵士大师的传奇,迈尔斯·戴维斯、昆西·特鲁普,孙侃、李奇,湖南人民出版社,2014-1,78.00元,8.8
1065159,尼金斯基手记,,（俄）尼金斯基,李多,华夏出版社,2003-04,13.80,8.6
1012039,我的视觉日记,旅德生活十五年,王小慧,,学林出版社,2001-9,38.00元,8.1
25870328,永生或猝死,,王小慧,,学林出版社,2001-9,38.00元,9.2
1002607,一个导演的故事,,安东尼奥尼,林淑琴,广西师范大学出版社,2003-6-1,14.80,8.5
25894782,不朽的钢琴家,,[美]哈罗德•C.勋伯格,顾连理、吴佩华,广西师范大学出版社,2014-6,68.00,8.7
26810549,铁意志与柔软心,张荣发的33个人生态度,张荣发（口述）、吴锦勋（采访•撰文）,,东方出版中心,2016-6,39.50元,9.6
6954093,追寻事实,两个国家、四个十年、一位人类学家,【美】克利福德·格尔茨,林经纬,北京大学出版社,2011-10,28.00元,8.7
1144283,Virgin商业帝国,理查德·布兰森自传,[英] 理查德·布兰森,申志雄,南海出版公司,2004-1,28.00元,8.4
25880784,追寻普鲁斯特,莫洛亚文学传记,【法】莫洛亚,徐和瑾,上海译文出版社,2014-8,39.00,8.9
1785342,达·芬奇传,放飞的心灵,查尔斯·尼科尔,朱振武 赵永健 刘略昌,长江文艺出版社,2006-05,56.00元,8.1
10758623,悠游100年/悠遊100年,趙爺爺和你分享五顆歡喜心,趙慕鶴口述方雅惠執筆,,商業周刊,2012-1-4,HKD280.00,8.6
1024526,著名画家、雕塑家、建筑家传,,(意）乔治・瓦萨里,刘明毅,中国人民大学出版社,2004-08,59.80,8.3
26584055,米塞斯回忆录,,[奥地利]路德维希·冯·米塞斯,黄华侨,上海社会科学院出版社,2015-9-1,38.00元,8.6
1764721,心灵的激情（上）,西格蒙德 弗洛伊德传记小说,[奥地利]路德维希·冯·米塞斯,黄华侨,上海社会科学院出版社,2015-9-1,38.00元,8.5
1023860,最后的炼金术士：牛顿传,,[英] 迈克尔·怀特,陈可岗,中信出版社 辽宁教育出版社,2004-05,48.00元,8.4
11504666,谁愿永生,弗雷迪·莫库里传,[英] 彼得•弗里斯通、[英] 大卫•埃文斯,陈震,南京大学出版社,2012-8,28.00元,8.1
1889166,我的反间谍生涯,,[荷] 奥莱斯特·平托 上校,姚越秀、陈凤吾、李淑廉、范维信,群众出版社,1981-11,1.20 元,9.1
25802164,我係何式凝，今年五十五歲,,何式凝,韓麗珠,三聯書店 （香港）,2013-12-17,HK$ 88.00,8.3
26354422,去你的，生活,与卢西安·弗洛伊德共进早餐,[英] 乔迪·格雷格,屠珀,新星出版社,2015-5,68.00元,7.7
1270508,失焦,卡帕战地摄影手记,[匈] 罗伯特·卡帕,徐振锋,广西师范大学出版社,2005-3,18.00元,8.7
1161385,苏门答腊的郁达夫,,铃木正夫,李振声,上海远东出版社,2004-5-1,18.00,8.1
26043805,你因灵魂被爱,张爱玲传,闫红,,湖南文艺出版社,2014-10-22,36.00元,7.4
6784039,你若安好便是晴天,林徽因传,白落梅,,中国华侨出版社,2011-9,28.00元,5.9
5286100,解码者,数学探秘之旅,Jean Francois Dars、Annick Lesne,李锋,高等教育出版社,2010 年9月,59.00元,8.9
10432364,奇思妙想,15位计算机天才及其重大发现,Dennis E. Shasha、Cathy A. Lazere,向怡宁,人民邮电出版社,2012-3,32.00元,8.0
1028077,师从天才,一个科学王朝的崛起,[美] 罗伯特·卡尼格尔,江载芬、闫鲜宁、张新颖,上海科技教育出版社,2001-12,19.80元,8.3
1480064,夏加尔,醉心梦幻意象的画家,Daniel Marchesseau,周梦罴,上海译文出版社,2003,35.00,8.7
1817037,伍迪·艾伦：电影人生,,[美]理查德·席克尔,伍芳林,广西师范大学出版社,2006-6,18.00元,7.4
1171967,袁世凯评传（上下）,,刘忆江,,经济日报出版社,2004,80.00元,8.8
6101116,巴赞传,,[美] 达德利·安德鲁,张田、张立,新星出版社,2011-4,29.00元,8.2
3138839,大师,,[爱尔兰] 科尔姆·托宾,柏栎,人民文学出版社,2008-7,26.00元,8.6
5269145,沉浮与枯荣,八十自述,江平、陈夏红,,法律出版社,2010-9,48.00元,7.9
2053754,大自然的猎人,生物学家威尔逊自传,[美] 爱德华·威尔逊,杨玉龄,上海科学技术出版社,2006-7,33.00元,8.6
1006190,知识分子,,[英] 保罗·约翰逊,杨正润 等,江苏人民出版社,2003-11,26.00元,7.5
26660670,人生不怕从头再来,,刘晓庆,,长江文艺出版社,2015-11-1,CNY 39.80,7.4
1119207,周恩来,国内唯一原版引进周恩来传记,迪克・威尔逊,封长虹,中央文献出版社,2000-8-1,32.00元,8.0
25784098,华尔街之狼,,乔丹·贝尔福特,苏鸿雁,中信出版社,2013-12,45.00元,7.3
26701708,幸运男孩,从奥斯维辛集中营幸存的回忆,[美]托马斯伯根索尔,杨柳、杨力军,生活·读书·新知三联书店,2016-2,35.00,8.6
26336549,儲安平傳,,韓戍,,牛津大學出版社,2015-3,HK$100,8.7
25969883,维特根斯坦之家,,亚历山大•沃（Alexander Waugh）,钟远征,漓江出版社,2014-11,48.00,8.5
4312477,天地九重,,杨利伟,,解放军出版社,2010,36.00元,8.8
1741716,周恩来与他的世纪,1898-1998,[英] 韩素音,王弄笙 等,中央文献出版社,1992-11,22.00元,8.6
25766893,成为简•奥斯丁,《成为简·奥斯丁》电影原著,乔•亨特•斯宾塞,王杭铒,江苏文艺出版社,2013-11,35.00元,8.7
26674220,章开沅口述自传,,章开沅口述  彭剑整理,,北京师范大学出版社,2015-11-1,CNY 58.00,8.6
26800327,陀思妥耶夫斯基（第2卷）,受难的年代，1850－1859,[美] 约瑟夫·弗兰克,刘佳林,广西师范大学出版社,2016-8,65.00,8.9
10578285,三十岁前的孙中山,翠亨、檀岛、香港 1866-1895,[澳大利亚] 黄宇和,,生活·读书·新知三联书店,2012-4,68.00元,8.4
10779604,图灵的秘密,他的生平、思想及论文解读,Charles Petzold,杨卫东,人民邮电出版社,2012-11,69.00元,8.8
24741682,力挽狂澜：保罗•沃尔克和他改变的金融世界,保罗•沃尔克和他改变的金融世界,【美】威廉·西尔伯(William Silber),綦相、刘丽娜,上海财经大学出版社,2013-9,68.00元,8.5
2266339,贝多芬传,,(法)罗曼·罗兰,傅雷,人民音乐出版社,1978-09-01,0.39,8.8
1937955,胡适之先生晚年谈话录,,胡颂平,,新星出版社,2006-10,25.00,8.5
26372330,罗素传,孤独的精神 1872—1920,[英] 瑞·蒙克,严忠志、欧阳亚丽,浙江大学出版社,2015-8,118.00,8.0
1014310,痛并快乐着,,白岩松,,华艺出版社,2001-01,20.00,7.4
1088630,沃伦·巴菲特之路,,小罗伯特·G·海格士多姆,,清华大学出版社,2007-5,28.00元,8.7
26806186,道金斯传（全2册）,,[英] 理查德·道金斯,魏薇,北京联合出版社,2016-6,169.90元,8.5
10344040,一个瑜伽行者的自传,60周年纪念版全文译本,[美] 帕拉宏撒•尤迦南达,王博,新世界出版社·阳光博客,2012-2,49.80元,7.6
26702743,知中·再认识李小龙,你以为他是一介武夫，其实你根本不了解他,苏静 主编,,中信出版社,2016-2-1,49.80,8.3
6531686,抉择时刻,乔治·沃克·布什自传,[美] 乔治·沃克·布什,东西网,中信出版社,2011-8,48.00元,8.0
2980475,长路漫漫,Autobiography of a Boy Soldier,[塞拉利昂] 伊斯梅尔·比亚,于海江,上海译文出版社,2008-1,22.00,8.4
1046615,达利的秘密生活/一个天才的日记,,[塞拉利昂] 伊斯梅尔·比亚,于海江,上海译文出版社,2008-1,22.00,8.6
3297608,费曼手札,不休止的鼓声,R·P费曼,叶伟文,湖南科学技术出版社,2008,45.00元,8.6
4119096,查理·芒格传,,[美]珍妮特·洛尔(Janet Lowe),邱舒然,中国人民大学出版社,2009-10-1,49.80,7.4
4208765,浅草小子,,（日）北野武,吴菲,上海人民出版社,2010-3,22.00元,7.8
20433553,怒目少年,王鼎钧回忆录四部曲之二,王鼎钧,,生活•读书•新知三联书店,2013-1-1,32.00元,8.8
3665955,巴黎隐士,卡尔维诺自传,[意大利] 伊塔洛·卡尔维诺,倪安宇,译林出版社,2009-7,21.00元,7.5
1322358,费马大定理,一个困惑了世间智者358年的谜,（英）西蒙・辛格,薛密,上海译文出版社,2005-05-01,33.00,9.0
26684744,A Life Beyond Boundaries,A Memoir,Benedict Anderson,,Verso,2016-4-26,USD 24.95,8.6
25887840,吴宓与陈寅恪,增补本,吴学昭,,生活·读书·新知三联书店,2014-8,49,8.4
26681315,一个定理的诞生,我与菲尔茨奖的一千个日夜,[法]塞德里克·维拉尼  著、[法]克劳德·龚达尔  绘,马跃、杨苑艺,人民邮电出版社,2015-11,39.00元,8.9
4317958,加缪传,,[法] 奥利维·托德,黄晞耘、何立、龚觅,商务印书馆,2010-10,95.00元,8.9
26357036,恋爱中的波伏瓦,,[法]伊雷娜·弗兰,徐晓雁,南海出版公司,2015-6,39.50元,8.1
1065341,孤独是迷人的,艾米莉·狄金森的秘密日记,(美)艾米莉·狄金森,吴玲,百花文艺出版社,2000-10,11.20,8.1
2370421,回忆维特根斯坦,,[美] 诺尔曼·马尔康姆,李步楼、贺绍甲,商务印书馆,1984-7,0.59元,9.1
26324835,披头士,唯一正式授权传记,[英] 亨特·戴维斯,林东翰,中信出版社,2015-6,88.00元,8.5
11592003,不得贪胜,,[韩]李昌镐,许丽,化学工业出版社,2012-9-1,39.00元,8.1
26323530,念完哈佛念阿弥陀佛,,陈宇廷,,三秦出版社,2015-1,68.00元,8.3
1186753,在不确定的世界,,罗伯特・鲁宾、李晓岗、王荣军、张凡,李晓岗、王荣军、张凡,中国社会科学出版社,2004-9-1,35.00元,8.1
26894720,巴菲特幕后智囊：查理•芒格传,国内唯一芒格本人及巴菲特授权传记,【美】珍妮特•洛尔（Janet Lowe）,邱舒然,中国人民大学出版社,2016-10-1,69,8.1
25983635,驚弦：汪精衛的政治生涯,,李志毓,,牛津大學出版社,2014-9,HK$108.00,8.3
4210829,蒋介石传,,布赖恩·克罗泽,封长虹,国际文化出版社,2010-1,36.00元,7.1
25762414,博尔赫斯大传,,埃德温·威廉森、Edwin Williamson,邓中良、华菁,华东师范大学出版社,2014-1-10,59.00元,8.1
26298299,生活本身,,罗杰·伊伯特,张文思,世界图书出版公司北京公司,2015-3-1,CNY 68.00,7.9
26288091,我是伊布,我来讲述真相,【瑞典】兹拉坦·伊布拉伊莫维奇、【瑞典】戴维·拉格克兰茨,陈颖一、钱坤,新世界出版社,2014-12,69.80元,8.6
1223765,请宰了我,一部叛逆文化的口述秘史,[美] 莱格斯·麦克尼尔、吉里安・麦凯恩 编著,郝舫、时颖、卢世伟、韩镝、王洋,花城出版社,2005-1,48.00元,8.3
10740047,库布里克传,漫游太空,[美] 文森特·罗布伦托,顾国平、董继荣,吉林出版集团有限责任公司,2012-6,56.00元,7.9
1547329,胡适留学日记,,胡适,,岳麓书社,2000年1月1日,39.0,8.5
26740091,爱与数学,,[美]爱德华·弗伦克尔	（Edward Frenkel）,胡小锐,中信出版社,2016-3,49.00元,8.5
1792738,几位著名经济思想家的生平、时代和思想,世俗哲人,[美]罗伯特·L·海尔布罗纳,蔡受百等,商务印书馆,1994-1,7.90,8.9
1035997,与魔鬼作斗争,荷尔德林、克莱斯特、尼采,斯蒂芬·茨威格,徐畅,西苑出版社,1998-1-1,16.00元,8.9
2183332,甘地自传,,甘地,简敏,长江文艺出版社,2007-6-1,30.00元,8.0
2152822,哈耶克评传,,(美)布鲁斯·考德威尔,冯克利,商务印书馆,2007-6,33.00元,8.6
2142574,时光中的时光,塔可夫斯基日记（1970-1986）,[苏] 安德烈·塔可夫斯基,周成林,广西师范大学出版社,2007-6,38.00元,8.7
1056144,中的精神,吴清源自传,吴清源,王亦青,中信出版社,2003-09,24.00,7.5
1020207,贝多芬传（插图珍藏本）,,（法）罗曼・罗兰,傅雷,中国友谊出版公司,2000-10,29.80,8.7
1052242,无法直面的人生,鲁迅传,王晓明,,上海文艺出版社,2001-5,20.00元,8.8
10428378,司马迁之人格与风格 道教徒的诗人李白及其痛苦,,李长之,,商务印书馆,2011-9-1,48.00元,8.6
1044177,李嘉诚全传,,陈美华、辛磊,,中国戏剧出版社,2005-1,35.00元,7.6
1450065,李宗仁回忆录（上下）,,李宗仁 口述、唐德刚 撰写,,广西师范大学出版社,2005-12,68.00元,8.4
7047238,王阳明,,秦家懿,,生活·读书·新知三联书店,2011-12,28.00元,8.1
6723066,乔布斯传,神一样的传奇,王咏刚、周虹,,上海财经大学出版社,2011-8,39.80元,7.1
26771922,科比,黄金年代,张佳玮,,金城出版社,2016-6-10,CNY 59.80,7.9
1060595,阿加莎·克里斯蒂自传,,(英)阿加莎·克里斯蒂,詹晓宁等,贵州人民出版社,1998-10,19.5,8.2
10582351,虚实之间,,芮成钢,,长江文艺出版社,2012-5,32.00元,7.5
25873157,爱，谎言与写作,杜拉斯影像记,芮成钢,,长江文艺出版社,2012-5,32.00元,8.1
26422275,向死而生,我修的死亡学分,李开复,,中信出版社,2015-7,42元,7.3
25901826,三岛由纪夫，或空的幻景,,[法] 玛格丽特·尤瑟纳尔,姜丹丹、索从鑫,上海三联书店,2014-12-30,18.00元,7.6
25807918,莎士比亚书店,,[美] 西尔维亚·毕奇,恺蒂,译林出版社,2014-4,38.00,7.8
26667961,温尼科特传,,[美] 罗伯特•罗德曼,吴建芝、刘书岑,世界图书出版公司北京公司,2016-2-1,78.00元,7.9
3088963,陈寅恪与傅斯年,,岳南,,陕西师范大学出版社,2008-6,38.00元,7.7
26827725,安身与立命,,余世存,铁葫芦,北京联合出版公司出版,2016-8-1,42,8.7
1432875,Sviatoslav Richter,Notebooks and Conversations,Bruno Monsaingeon、Stewart Spencer,Stewart Spencer,Princeton University Press,2001-3,USD 52.50,9.6
4242160,细说民国大文人,那些国学大师们,民国文林 编著,,现代出版社,2010-1,36.00元,8.2
3347961,流水别墅传,赖特、考夫曼与美国最杰出的别墅,富兰克林•托克,林鹤,清华大学出版社,2009-1,75.00元,8.4
5397869,被埋没的天才,科学超人尼古拉·特斯拉,[美] 玛格丽特·切尼,陈璐,重庆出版社,2010-12,36.00元,7.9
23858312,断头王后,玛丽•安托瓦内特,斯蒂芬•茨威格 (Stefan Zweig),,经济科学出版社,2013-4-1,32.00元,8.2
26357078,权力的艺术,托马斯·杰斐逊传,[美]乔恩·米查姆,贾冬妮、唐辉、徐宁,中信出版社,2015-4,79.00元,8.5
2070169,国士无双伍连德,,王哲,,福建教育出版社,2011-10,38.00元,8.2
1546323,大慈恩寺三藏法师传 释迦方志,,[唐] 释 慧立、[唐] 释 彦悰、[唐] 道宣,孙毓棠 点校、谢方 点校、范祥雍 点校,中华书局,2000,19.00,9.1
1161333,爱因斯坦传（上下）,,亚伯拉罕·派斯,,商务印书馆,2004-4,50.00元,8.6
3169416,黑塞画传,,[德]弗尔克•米歇尔斯 编,李士勋,上海世纪出版集团,2008.8,98.00元,8.8
3008949,戈达尔,七十岁艺术家的肖像,(美)科林·麦凯布,韩玲、张晓丽、薛妍,新星出版社,2008-3,38.00,8.2
1893879,张居正（全四册）,,熊召政,,人民文学出版社,2006-7,112.00元,8.5
1003138,沙漠革命记,,T.E劳伦斯,吕叔湘,辽宁教育出版社,1997-03,5.40,8.7
1144501,约翰逊传,,包斯威尔,罗珞珈 莫洛夫,中国社会科学出版社,2004-01,38.00,8.4
3181961,朱元璋传,,吴晗,,陕西师范大学出版社,2008-9,28.00元,7.6
25876178,乱世奇女子,,陈彧,,中央编译出版社,2014-5,32.00,9.9
25702730,我的战争都埋在书里,艾米莉·狄金森传,[美] 阿尔弗雷德·哈贝格,王柏华、曾轶峰、胡秋冉,北京大学出版社,2013-9,99.00,8.7
24522649,爱情是一盘自制卡带,,[美] 罗布•谢菲尔德,冯倩珠,南京大学出版社,2013-5,24.00元,8.7
6822683,朱镕基讲话实录 第一卷,,《朱熔基讲话实录》编辑组,,人民出版社,2011-9,49.00元,8.9
4912669,忧伤的老板,,左小祖咒,,上海人民出版社,2010-8,45.00元,7.3
1448684,蓝血十杰,美国现代企业管理之父,［美］约翰·伯恩,陈山、真如,海南出版社,2008年4月,39.80元,8.0
1253222,居里夫人传,,〔法〕艾夫﹒居里,左明彻,商务印书馆,1984-7,28.00元,8.6
1691568,我与悲鸿,16开,蒋碧微,,书海出版社,2006-2,25.00元,7.5
3266348,我自己的世界,梦之日记,[英] 格雷厄姆·格林,恺蒂,译林出版社,2008-10,18.00元,7.4
3306209,雪域求法记,一个汉人喇嘛的口述史,邢肃芝(洛桑珍珠) 口述、杨念群、张健飞 笔述,,生活·读书·新知三联书店,2008-11,36.00元,8.5
20366617,斯皮尔伯格传,,乔瑟夫·麦克布莱德,人人影视字幕组,江苏文艺出版社,2012-12,68.00元,8.0
1033449,巨人三传,,罗曼罗兰,傅雷,安徽文艺出版社,1989,15.60,8.6
3277881,兰波传,,让-吕克·斯坦梅茨,袁俊生,上海人民出版社（北京世纪文景）,2008,59.00,8.2
4819994,也同欢乐也同愁,忆父亲陈寅恪母亲唐筼,陈流求、陈小彭、陈美延,,生活·读书·新知三联书店,2010-4,32.00元,8.0
26845776,陌生的荣耀,朋霍费尔的一生,[美] 查尔斯·马什,徐震宇,上海文艺出版社,2016-8,85.00元,7.8
25762654,邬达克,,[意]卢卡·彭切里尼、[匈]尤利娅·切伊迪,华霞虹、乔争月,同济大学出版社,2013-10-26,56.00,8.7
1313462,我的大脑敞开了,数学怪才爱多士,（美）布鲁斯·谢克特,王元、李文林,上海世纪出版集团,2005-5,26.00,8.3
3038143,季羡林自传,,季羡林,,当代中国,2008-4,45.00元,8.5
25827602,托克维尔传,,[英]拉里·西登托普,林猛,商务印书馆,2013-11,32.00,8.8
25746237,生命之轮,生与死的回忆录,[美] 伊丽莎白·库伯勒-罗斯、Elisabeth Kubler-Ross,范颖,重庆出版社,2013-11,36.00,8.2
1007897,陈寅恪先生编年事辑,,蒋天枢,,上海古籍,1997-06-01,16  元,9.3
3393534,在股市大崩溃前抛出的人,巴鲁克自传,（美）伯纳德·巴鲁克,张伟,机械工业出版社,2008-12-1,48.00元,8.2
10809730,沿着公路直行：鲍勃·迪伦传,鲍勃.迪伦传,[英] 霍华德•桑恩斯（Howard Sounes）,余淼,南京大学出版社,2012-6,45.00元,7.2
2019937,赵四小姐,,[英] 霍华德•桑恩斯（Howard Sounes）,余淼,南京大学出版社,2012-6,45.00元,8.3
1362212,來自遠方的拷問,哈維爾自傳,瓦茨拉夫‧哈維爾,貝嶺、羅然,傾向,2003-1,TWD 270,8.9
20282875,蒋介石,一个力行者的思想资源,黄道炫、陈铁健,,山西人民出版社,2012-11-1,48.00元,8.0
1277262,孔子传,,钱穆,,三联书店,2005-2,14.80,8.1
1082102,风雨独立路,李光耀回忆录（1923-1965）,李光耀,,外文出版社,1998-09,24.80,8.3
6024015,蚕丝：钱学森传,,[美] 张纯如,鲁伊,中信出版社,2011-4-1,42.00,8.0
10809151,失语者,,马丁·皮斯托留斯,吴静,中信出版社,2012-7,29.00元,7.8
10515067,杨德昌的电影世界,,[法]让-米歇尔•付东,杨海帝、冯寿农,商务印书馆,2012-2,58.00元,8.0
1076285,漏船载酒忆当年,,杨宪益,薛鸿时,北京十月文艺出版社,2001-4,15.00元,8.4
25725216,雅各布·布克哈特,,杨宪益,薛鸿时,北京十月文艺出版社,2001-4,15.00元,9.0
25975485,穿布鞋的马云,决定阿里巴巴生死的27个节点,王利芬、李翔,,北京联合出版社,2014-10-1,42.00元,7.1
4789228,In The Plex,How Google Thinks, Works and Shapes Our Lives,Steven Levy,,Simon & Schuster,2011-4-12,GBP 18.99,8.7
1351480,柏拉圖式性愛,Platonic Sex,Steven Levy,,Simon & Schuster,2011-4-12,GBP 18.99,6.8
2998522,流氓的归来,一部回忆录,（罗马尼亚）诺曼·马内阿,邵文实、梁禾,吉林出版社,2008-03-01,40.00元,8.2
1132803,最后的儒家,梁漱溟与中国现代化的两难,艾恺,王宗昱、冀建中,江苏人民出版社,2003-08-01,19.00,8.2
26904889,莱昂纳德·科恩,众人皆晓,[美] 哈维·库布尼克,,海南出版社,2016-12,88.00元,7.6
2382825,希拉里传,掌权美国的女人,(美国)卡尔·伯恩斯坦,张岩,中信出版社,2008-1,48.00元,7.4
1079698,哥德尔,,[美] 王浩,康宏逵,上海译文出版社,2002-9,30.00元,8.5
6085416,回忆波德莱尔,波德莱尔的生平和对他亲切的回忆,(法)泰奥菲尔·戈蒂耶,陈圣生,上海译文出版社,2011-10,32.00元,8.5
11907918,Daily Rituals,How Artists Work,Mason Currey,,Knopf,2013-4-23,USD 24.95,8.4
10599768,碧河彼时,我的剑桥童年,[英]格温•拉弗拉,管可秾,商务印书馆,2012-12,52.00元,8.9
24899757,舞者,,[英]格温•拉弗拉,管可秾,商务印书馆,2012-12,52.00元,8.5
26640174,方济各传 阿奎那传,,[英]切斯特顿,王雪迎,生活·读书·新知三联书店,2016-6-1,CNY 38.00,8.3
1320062,加缪和萨特,一段传奇友谊及其崩解,（美）罗纳德·阿隆森,章乐天,华东师范大学出版社,2005-04-08,24.80,7.8
1022604,人性的光辉-林肯传,人性的光辉,(美)戴尔.卡耐基,张伟,内蒙古人民出版社,2003-07,40.00,8.3
4202361,耶稣传,耶稣传,(法) 欧内斯特·勒南,梁工,商务印书馆,2010-10,24.00元,8.6
4217139,高盛帝国（上）,,[美] 查尔斯·埃利斯,卢青、张玲、束宇,中信出版社,2010-1-1,42.00,7.5
24371403,过得刚好,,郭德纲,,北京联合出版公司,2013-6-1,39.80元,6.8
5383915,只为途中与你相见,仓央嘉措传与诗全集,苏缨、毛晓雯,,江苏文艺出版社,2011-1,32.80元,7.7
1313317,三毛私家相册,,师永刚、陈文芬、冯昭、沙林 编、肖全 图,,中信出版社,2005-4,39.80元,8.4
3643702,作為上師的妻子：我和邱陽創巴的人生,我和邱陽創巴的人生,黛安娜．J．木克坡、卡洛琳．蘿絲．吉米安,,吳茵茵,橡樹林文化,2008,8.3
26315071,不要因为走得太远而忘记为什么出发——陈虻，我们听你讲 收藏版,,徐泓,,中国人民大学出版社,2015-1-1,45,8.7
1542075,胡雪岩全传（共七册）,,高阳,,中国友谊出版公司,1995-1,85.00元,8.6
25742274,德扑之王,大卫·邱的人生传奇,老邱,,中国商业出版社,2013-10-15,42.80,8.1
25886891,卡尔·马克思,一个19世纪的人,[美]乔纳森·斯珀伯,邓峰,中信出版社,2014-5,68.00元,8.3
1138763,林肯传,,(德)埃米尔﹒路德维希,,团结出版社,2003-11,29.80元,8.5
11526985,直到世界尽头,林丹自传,林丹,,凤凰出版社,2012-8-5,35.00元,7.2
1057779,哈耶克传,,阿兰・艾伯斯坦,秋风,中国社会科学出版社,2003-04,26.00,8.2
4894612,个人历史,凯瑟琳·格雷厄姆自传,凯瑟琳·格雷厄姆,苗萌、李媛,中信出版社,2010-8,48.00元,8.2
21345535,洪业传,,陈毓贤,,商务印书馆,2013-2-1,42.00元,8.5
25913083,无人是孤岛：侯孝贤的电影世界,侯孝贤的电影世界,[美] 詹姆斯•乌登,黄文杰,复旦大学出版社,2014-7,38.00,8.0
25975454,九败一胜,美团创始人王兴创业十年,李志刚,,北京联合出版公司,2014-9-1,42.00元,7.9
2970118,幾米故事的開始,,幾米,,大塊文化,2008-02-01,NT$380,8.8
1321315,半梦,金星自传,金星,,中信出版,2005-5,25.00元,8.0
25943598,埃隆·马斯克传,乔布斯之后改变世界的人,陆西,,重庆出版社,2014-7,38.00元,7.6
25930050,一部自传,弗兰克·劳埃德·赖特,[美]弗兰克·劳埃德·赖特,杨鹏,上海人民出版社,2014-7,149.00,8.1
1318002,纪德自传,如果种子不死,纪德,罗国林,北京十月文艺出版社,2005-5,20.00元,8.1
25382842,舍我其谁：胡适（第二部）,日正当中，1917—1927,江勇振,,浙江人民出版社,2013-9,98.00元（全二册）,8.4
6920100,20个月赚130亿,YouTube创始人陈士骏自传,陈士骏、张黎明,,中国华侨出版社,2011-11-17,35.00元,7.6
3669394,切·格瓦拉传,,[美国] 乔恩·李·安德森,马昕,长江文艺出版社,2009-3,32.00元,8.3
3410763,最后的演讲,,[美] 兰迪·鲍许,邹惠玲、张林,湖南科学技术出版社,2009-1,32.00,8.6
1313124,赢,韦尔奇一生的管理智慧,（美） 杰克•韦尔奇，苏茜•韦尔奇,余江,中信出版社,2005-5,35.00元,8.2
26289557,阿伦特手册,生平·著作·影响,【德】沃尔夫冈·霍尔（Wolfgang Heuer）、【德】贝恩德·海特尔（Bernd Heiter）、【德】斯特凡妮·罗森穆勒（Stefanie Rosenmüller）,王旭（Xu Wang-Hehenberger）、寇瑛,社会科学文献出版社·甲骨文,2015-1-20,CNY 138.00,8.3
20424572,敢问路在何方,我的30年西游路,杨洁,,江苏文艺出版社,2013-1-1,36.00元,8.6
1016204,不过如此,,崔永元,,华艺出版社,2001-7,19.00元,7.3
1435718,亨利·福特自传,我的生活和事业,亨利·福特,,中国城市出版社,2005-9,28.00元,8.4
10605328,红顶商人胡雪岩,,高阳,,江苏文艺出版社,2012-5-1,32.00元,8.5
6781409,窗里窗外,,林青霞,,广西师范大学出版社,2011-9,88.00元,6.8
6856645,粉墨春秋,盖叫天舞台艺术经验,盖叫天、何慢、龚义江记录整理,,上海文艺出版社,2011-8-1,30.00元,8.9
1048524,尼采传,一个特立独行者的一生,丹尼尔・哈列维[法],刘娟,贵州人民出版社,2004-06,29.80,8.1
6124314,皇帝,独裁政权的倾覆,雷沙德·卡普钦斯基,乌兰,新星出版社,2011-5,22.00元,7.9
2976741,基辛格,大国博弈的背后,沃尔特·艾萨克森,刘汉生,国际文化出版社,2008-2,56.00元,8.7
2995151,三生影像,,聂华苓,,生活·读书·新知三联书店,2008-02,49.00元,8.5
1068803,上海的女儿,,[美] 周采芹,何毅华,广西人民出版社,2002-4,23.00元,7.4
24296282,我是怪人，我是独行者,——库布里克谈话录,吉恩•菲利普斯 编著,顾国平、张英俊、艾瑞,新星出版社,2013-6,42.00,8.4
1075743,我把青春献给你,,冯小刚,,长江文艺出版社,2003-03,18.00,7.3
1441488,宫本武藏·剑与禅（上下）,,[日] 吉川英治,颜世俊、刘仲达,重庆出版社,2005-12,120.00元,8.4
1438426,三大师,,斯特凡·茨威格,申文林,人民文学出版社,2001-10,10.00,8.6
10808389,胡适书信选,,胡适,,外语教学与研究出版社,2012-6-30,65.00元,9.3
5941142,左宗棠传,,（美）贝尔斯,王纪卿,江苏文艺出版社,2011-2-1,29.80元,7.9
25723679,莱昂纳多·迪卡普里奥：在世界的中心流浪,,[美] 道格拉斯•怀特,谭飞,世界图书出版公司,2013-11,68.00,7.6
1005660,雕刻时光,塔可夫斯基的电影反思,[苏] 安德烈·塔可夫斯基,陈丽贵、李泳泉,人民文学出版社,2003-08,25.00元,9.0
6773626,安德烈·塔可夫斯基,,【法】安托万·德·贝克,方尔平,北京大学出版社,2011-10,20.00元,8.1
24232359,亚当·斯密传,,伊安•罗斯,张亚萍,浙江大学出版社,2013-5,98.00,8.6
26379507,On the Move,A Life,Oliver Sacks,,Knopf,2015-4-28,USD 27.95,8.2
25720292,个人印象,,[英]以赛亚·伯林,林振义、王洁,译林出版社,2013-9,35.00元,8.2
6310990,沈宗瀚自述（全三册）,,沈宗瀚,,黄山书社,2011-9-1,60.00元,9.2
3238550,老美国志异,鲍勃·迪伦《地下录音带》的世界,(美) 格雷尔·马库斯（Greil Marcus）,董楠,南京大学出版社,2008年9月第一版,22.00元,8.0
1071819,经济腾飞路,李光耀回忆录（1965-2000）,[新加坡] 李光耀,,外文出版社,2001-9,29.00元,8.7
2122992,故道白云,,一行禅师,何蕙仪,线装书局,2007-6,38.00元,9.0
10831855,俞敏洪口述,在痛苦的世界中尽力而为,优米网,,当代中国出版社,2012-7,28.00元,8.0
1022897,法斯宾德的世界,,(英)海曼著,彭倩文,广西师范大学出版社,2003-07,16.80元,7.9
20501523,马世民的战地日记,从悍将到企业巨人,[英] 马世民,余卓轩、张燮,中国人民大学出版社,2013-1-6,39.80元,8.8
1015403,今生今世,我的情感历程,胡兰成,,中国社会科学出版社,2003-9,23.80元,7.7
24869530,一往无前,约翰尼·卡什自传,[美]约翰尼·卡什、[美]帕特里克·卡尔,马里万,联邦走马制作,2013-8,100,8.9
1011180,顾准日记,一个思想家的心路历程,顾准,,经济日报出版社,1997-09,25.00元,8.7
25887892,巴尔扎克传,普罗米修斯或巴尔扎克的一生,(法)  安德烈·莫洛亚,艾珉、俞芷倩,浙江大学出版社,2014-7,69.00元,9.5
1737317,我的生活,,夏加尔,,北京十月文艺出版社,2006-1,16.00元,8.3
25870596,奥黛丽·赫本,全彩典藏本,[美]唐纳德·斯伯特,庄靖,中国友谊出版公司,2014-6-1,48.00元,7.9
26419125,丁玲传,,李向东、王增如,,中国大百科全书出版社,2015-5,128.00元,8.4
1390412,一个唯美主义者的遗言,,彼得·阿克罗伊德,方柏林,译林出版社,2004-04-01,13.60元,8.4
26644827,时光深处的优雅,,慕容素衣,,北京十月文艺出版社,2015-11-15,32,7.4
2253778,皮娜·鲍什,为对抗恐惧而舞蹈,约亨·施密特（Jochen Schmidt）,林倩苇,上海人民出版社,2007-10,35.00元,7.8
3335271,娜写年华,,谢娜,,上海锦绣文章出版社,2008-12,39.80元,7.1
26855718,GUCCI:古驰王朝,,[意大利]柏翠莎•古驰 著,经诗墨,九州出版社,2016-9,48.00元,8.5
25806352,梁思成与他的时代,,朱涛,,广西师范大学出版社,2014-1-1,CNY 58.00,8.3
2230560,艾柯卡自传,,李.艾柯卡,,中信出版社,2007-9,45.00元,8.1
26902165,愤世嫉俗,杨德昌和他的电影,黄文杰,,复旦大学出版社,2017-1,48,7.4
1963618,伟大作曲家的生活,,（美）哈罗德·C·勋伯格,冷杉、侯珅、王迎,生活·读书·新知 三联书店,2007-01-01,49.80,8.5
4011409,阿伦特与海德格尔,爱和思的故事,安东尼娅·格鲁嫩贝格,陈春文,商务印书馆,2010-4,35.00元,7.7
4173112,我的光荣与信仰,大律师丹诺回忆录,[美] 克莱伦斯·丹诺,简贞贞,金城出版社,2010-1,39.80元,8.4
4224723,一个德国人的故事,哈夫纳1914~1933回忆录,赛巴斯提安·哈夫纳,周全,花城出版社,2009-11,20.00元,8.2
20451782,我是海明威的巴黎妻子,,保拉·麦克莱恩（Paula McLain）,郭宝莲,北京联合出版公司,2013-3-1,32.80元,8.4
25772855,里尔克：一个诗人,,[美] 拉尔夫·弗里德曼 Ralph Freedman,周晓阳、杨建国,华东师范大学出版社,2014-2,138.00元,7.7
6391211,给未来的记忆,河合隼雄回忆录,(日) 河合隼雄,李静,东方出版中心,2011-9,28.00元,8.7
3284230,我的成功可以复制,,唐骏、胡腾,,中信出版社,2008-12,38.00元,7.4
1944205,追寻记忆的痕迹,,[美] 埃里克·坎德尔,罗跃嘉,中国轻工业出版社,2007-1,35.00,8.9
25827226,11枚戒指：禅师菲尔·杰克逊自传,Eleven Rings: The Soul of Success,[美] 菲尔·杰克逊、[美] 休·迪里汉提,傅婧瑛,北京联合出版公司,2014-3,45,8.3
1921523,思想者,查尔斯•汉迪自传,查尔斯•汉迪,闾佳,人大出版社,2006-11,36.00元,8.6
24284032,危险方法,荣格、弗洛伊德和一个女病人的真实传奇,约翰·克尔,成颢,译林出版社,2013-5,58.00元,8.1
1449924,沈从文传,THE ODYSSEY OF SHEN CONGWEN,（美）金介甫、Jeffrey C.Kinkley,符家钦,国际文化出版公司,2009年3月,36.00元,8.4
23193963,推手,改变世界的经济学天才,西尔维娅·娜萨,马韧,人民文学出版社,2013-5,58.00元,8.8
26394029,安·兰德和她创造的世界,,[美] 安妮·C.海勒,启蒙编译所,广西师范大学出版社,2016-1,78.00元,7.8
10564000,弗朗索瓦·特吕弗,,[美] 安内特·因斯多夫,沈语冰,广西师范大学出版社,2012-4,46.00元,8.0
3176245,无畏的希望,重申美国梦,[美] 巴拉克·奥巴马,罗选民、王璟、尹音,法律出版社,2008-9,42.00元,7.3
24704563,思想的力量,智识之旅的非常规自传,雅诺什·科尔奈 (Janos Kornai),安佳、张涵,上海人民出版社,2013-5-1,CNY 88.00,8.8
1805764,宫女谈往录,储秀宫里随侍慈禧八年,金易、沈义玲,,紫禁城出版社,1992年7月,20.00元,8.6
25891899,圆点女王，草间弥生,草间首部自传性艺术随笔,(日) 草间弥生,,周以量,中信出版社,2015-1,7.2
1130448,杜甫评传（全三册）,,陈贻焮,,北京大学出版社,2003-7,76.00元,9.0
1451472,女性小传,,罗莎·蒙特罗,,南海,2005-11-1,18,8.3
1085028,有本事来抓我吧,一个诈骗犯令人惊异的真实故事,弗兰克﹒威﹒阿巴纳勒 斯坦﹒雷?,马爱农,上海译文出版社,2002-1,14.00元,8.2
2023257,深入非洲三万里,李文斯顿传,张文亮,,敦煌文艺出版社,2006-12,24.00元,8.7
1212372,弗里达,,海登・赫雷拉,夏雨,上海人民美术出版社,2003-1,38.00元,8.1
1981355,墨迹,留在生命和记忆中,曾子墨,,长江文艺出版社,2007-2,22.00元,6.8
4238148,白石老人自述,,齐白石口述、张次溪笔录,,生活·读书·新知三联书店,2010-1-1,29.00元,8.4
25853109,通往权力之路,叶卡捷琳娜大帝,[美]罗伯特·K.迈锡,徐海幈,北京时代华文书局,2014-5,88.00元,8.6
26133987,云去云来,,林青霞,,广西师范大学出版社,2014-11,CNY 79.00,6.7
25758648,我为什么要练琴,,加里•格拉夫曼,陈泠竹,广西师范大学出版社,2013-11,48.00,8.1
1986331,获救之舌,,埃利亚斯·卡内蒂,陈恕林、宁瑛、蔡鸿君,新星出版社,2006-12,33.00元,8.4
1055522,亲历历史,希拉里回忆录,[美] 希拉里·罗德姆·克林顿,潘勋 等,译林出版社,2003-8,29.80元,7.2
2981710,格雷厄姆,华尔街教父回忆录,本杰明·格雷厄姆,杨宇光,上海远东出版社,2008-1,39.00元,7.8
3423381,不可思议的惊奇,格伦·古尔德的生平与艺术,凯文·巴扎纳,刘家蓁,上海人民出版社,2009-1,52.00元,8.7
5417810,三毛1943-1991,,师永刚、陈文芬、沙林,,作家出版社,2011-1-1,39.80元,8.2
21966356,沃兹传,与苹果一起疯狂,[美]吉娜·史密斯,阮天悦、贺丽琴,中信出版社,2013-4,49.00元,8.2
3711441,马丁·路德·金自传,,（美）马丁•路德•金 著、（美）克莱伯恩•卡森  编,马乐梅  张安恩  杨婕  译,江西人民出版社,2009-6,49.00元,8.8
4882116,在华五十年,,(美) 司徒雷登,常江,海南出版社,2010-7,39.80元,8.2
2368805,异端的影像,帕索里尼谈话录,（意）皮耶尔·保罗·帕索里尼,余艳、肖艳丽、艾敏,新星出版社,2008-01-01,25.00元,8.1
26921246,女儿亚妮,,何守先（著）、亚妮（整理）,,新星出版社,2017-1,56.00元,7.6
5914557,伟大指挥家,《纽约时报》音乐评论,[美] 哈罗尔德·C·勋伯格,盛韵,生活·读书·新知三联书店,2011-3,38.00,8.9
3399291,周作人传,,止庵,,山东画报出版社,2009-1,35.00,8.1
24754129,相性,,三浦友和,毛丹青,人民文学出版社,2013-7-20,28,7.5
25876244,在绝望中寻找希望,,俞敏洪,,中信出版社,2014-5-1,36.00元,7.4
4882124,说谎的女人,,(法) 苏菲·玛索,洪昊玥,江苏文艺出版社,2010,25.00元,7.2
26636373,邵武四十年,美国传教士医生福益华在华之旅，1892—1932,小爱德华·布里斯 (Edward Bliss Jr.),安雯,中央编译出版社,2015-11-1,CNY 48.00,8.8
26711251,新藤兼人传,未完结的日本电影史,[日] 小野民树,里欣,世界图书出版公司,2016-2,49.00元,8.7
11588848,坦白书,献给勇于直面幻灭的理想主义者,马良,,湖南文艺出版社,2012-9,38.00元,8.2
2594830,从战争中走来：两代军人的对话,张爱萍人生记录,张胜,,中国青年出版社,2008-1,45.00元,8.5
1820160,马克思传,,(英)戴维·麦克莱伦,王珍,中国人民大学出版社,2006-6,58.00元,8.2
1274006,黎塞留传(全两册),,米歇尔.卡尔莫纳,曹松豪,商务印书馆,1996-12,40.70,9.0
5946558,莲生与阿玉,关于信仰的事,陈丹燕,,广西师范大学出版社,2011-1-1,32.00元,8.3
26578129,何有此生,一个日本遗孤的回忆,[日]中岛幼八,,生活•读书•新知三联书店 生活书店出版有限公司,2015-8-1,39.00,7.8
4033981,布罗茨基传,,[美] 列夫·洛谢夫,刘文飞,东方出版社,2009-8,48.00元,8.7
4894978,本·拉登传,一个恐怖大亨的隐秘人生,[叙利亚]纳伊瓦·本·拉登Najwa bin Laden、[沙特阿拉伯]奥玛·本·拉登 Omar bin Laden、[美国]简·萨森 Jean Sasson,陈嘉宁,金城出版社,2010年7月,36.00元,7.9
25551562,李光耀回忆录,我一生的挑战——新加坡双语之路,(新加坡)李光耀,,译林出版社,2013-11,38,7.4
26183838,我想看到的世界,,珍妮•苏克,索析,中国友谊出版公司,2014-11,39.80,7.5
1819835,弗洛伊德传(上、下),,（美）彼得·盖伊,龚卓军、高志仁、梁永安,鹭江出版社,2006-6,98.00元,8.5
1255445,切·格瓦拉画传,,师永刚、詹涓 编著,,作家出版社,2005-1,39.80元,8.5
1058869,唐浩明评点曾国藩家书（上下）,,[清] 曾国藩 原著、唐浩明 评点,,岳麓书社,2002-9,48.00元,8.9
26269976,混在美国名校,,海攀,,世界图书出版 公司·后浪出版公司,2015-1,60.00元,8.0
1439982,麦肯锡传奇,,（美）伊丽莎白・哈斯・埃德莎姆,魏青江、方海萍,机械工业出版社,2006-1,36.00元,7.8
1019155,小沃森自传,,（美）小托马斯・沃森,梁卿,中信出版社,2005-01,29.00元,8.5
6779184,索尼的故事,SONY的故事,（美）小托马斯・沃森,梁卿,中信出版社,2005-01,29.00元,7.7
4255653,The Answer：阿伦·艾弗森传,,张佳玮,,现代教育出版社,2010-2,48.00元,8.8
10863332,烈爱,伊丽莎白·泰勒&理查德·伯顿的世纪婚姻,[美] 萨姆·卡什纳、[美] 南希·勋伯格,檀秋文,世界图书出版公司,2012-9,49.80元,8.1
25892845,初心,,江振诚,,九州出版社,2014-6,32.80,7.8
1399465,赫本风格,好莱坞永恒时尚女神,帕米拉·克拉克·基尔,,中国对外翻译出版公司,2005-7,25.00元,7.5
1963026,勇敢抉择,卡莉·菲奥莉娜自传,(美)卡莉·菲奥莉娜,蒋旭峰,中信出版社,2007-1,39.00元,7.7
25848311,杨洁自述,我的九九八十一难,杨洁,,中国人民大学出版社,2014-4-1,CNY 49.80,8.3
2253754,萨冈，一个迷人的小魔鬼,,[法]阿兰·维尔龚德莱,段慧敏,江苏人民出版社,2007-8,14.00元,7.6
6430264,曾国藩大传,,林乾、迟云飞,,人民文学出版社,2011-5,50.00元,8.7
26599526,阿里传,这是阿里巴巴的世界,波特·埃里斯曼,张光磊、吕靖纬、崔玉开,中信出版社,2015-9-15,CNY 49.00,7.1
25764539,德里达传,,【法】伯努瓦·皮特斯,魏柯玲,中国人民大学出版社,2014-1,88.00,8.7
11620321,王石说,影响我人生的进与退,王石、时代纪录,,浙江大学出版社,2012-9,49.00元,7.4
1077499,重寻胡适历程,胡适生平与思想再认识,余英时,,广西师范大学出版社,2004-09,26.00,8.6
6880453,乔布斯传,,丹尼尔.伊克比亚,周盛,湖南人民出版社,2012-1,35.00元,8.1
4214837,苹果往事,开发麦金托什的非凡岁月,[美] 安迪·赫茨菲尔德,洪慧芳,电子工业出版社,2010-01,48.00元,8.1
26836277,好莱坞之父：威廉•塞利格,,[美]安德鲁•A．艾瑞什,王喆,世界图书出版公司北京公司,2016-7,58.00元,8.1
26640650,The Noise of Time,,Julian Barnes,,Jonathan Cape,2016-1-28,GBP 14.99,8.0
10569797,争气,,Julian Barnes,,Jonathan Cape,2016-1-28,GBP 14.99,8.1
26899881,探寻一个好社会,费孝通说乡土中国,张冠生,,理想国 | 广西师范大学出版社,2016-10,39.00元,8.1
20414496,一知半解,伊夫林·沃自传,[英] 伊夫林·沃,高继海,上海译文出版社,2013-1,35.00元,7.1
1465547,领袖们,,尼克松,,刘湖 等,知识出版社,1984年2月第一版,8.6
4256977,The Immortal Life of Henrietta Lacks,,Rebecca Skloot,,Crown Publishing Group,2010-2-2,USD 26.00,8.6
4745595,写作的女人危险,,(德) 博尔曼,宁宵宵,中央编译出版社,2010.4,29.80元,7.2
2975974,曾国藩评传,,刘忆江,,经济日报,2008-1,100.00元,8.7
5326869,尼古拉·果戈理,,(美) 纳博科夫,刘佳林,广西师范大学出版社,2010-12,28.00元,8.5
4745319,蔡国强：我是这样想的,,杨照、李维菁,,广西师范大学出版社,2010.5,36.00元,7.8
26791405,八百万种走法,,[美]劳伦斯·布洛克,兰尼,广西师范大学出版社·理想国,2016-6,42.00,7.6
20394055,没有时间的世界,爱因斯坦与哥德尔被遗忘的财富,帕利·尤格拉（Palle Yourgrau）,尤斯德、马自恒,电子工业出版社,2013-3-29,36.00元,8.3
5433534,弗朗索瓦·特吕弗,,[法] 安托万·德·巴克、[法] 塞尔日·杜比亚纳,单万里、朱晓洁,江苏文艺出版社,2011-1-1,60.00,8.4
21453394,这么远那么近,最值得荣迷珍藏的张国荣评传,宇文卿,,北京联合出版,2013-4,45.00元,8.2
5288459,野生金基德,,[韩] 金基德、[韩] 郑圣一,范小青,上海人民出版社,2011-1,49.00,8.0
6055098,Bossypants,,Tina Fey,,Reagan Arthur Books,2011-4-5,USD 28.99,8.5
10566133,罗斯柴尔德家族（上）,,尼尔·弗格森,顾锦生,中信出版社,2012-5,69.00元,7.6
1493655,波普尔思想自述,,波普尔、Popper,K.,赵月瑟,上海译文出版社,1988,2.40,8.6
3415676,我父亲的梦想,奥巴马回忆录,[美国] 巴拉克·奥巴马,王辉耀、石冠兰,译林出版社,2009-1,38.00,7.5
26308286,黑格尔传,,[美] 特里·平卡德,朱进东、朱天幸,商务印书馆,2015-7,CNY 125.00,8.7
1052336,顾准全传：拆下肋骨当火把,,高建国,,上海文艺出版社,2000-1,31.5,8.8
1187667,华尔街之子,摩根,琼·施特劳斯,贺慧宇、王同宽、池俊常,华夏出版社,2004-10,58.00元,8.1
1256405,哈德良回忆录,,[法] 玛格丽特·尤瑟纳尔,陈筱卿,东方出版社,2002-10,21.00元,8.6
26879317,王阳明：一切心法,,熊逸,,北京联合出版公司,2016-8,84.00,7.9
24872210,无愁河的浪荡汉子·朱雀城,,黄永玉,,人民文学出版社,2013-8,138,9.2
25728149,亚历山大·科耶夫,哲学、国家与历史的终结,黄永玉,,人民文学出版社,2013-8,138,8.3
1228193,回忆苏格拉底,,[古希腊] 色诺芬,吴永泉,商务印书馆,1984-9,12.00元,8.4
1737180,王安石传,,梁启超,,百花文艺出版社,2006-1-1,15.00元,8.0
1019356,聂鲁达自传,,巴勃罗.聂鲁达(智利),林光,东方出版中心,1993-08,22.00,8.9
1062756,林语堂传,,林太乙,,陕西师范大学出版社,2002-02,20.00元,8.0
26793699,笔误：文学大师的秘密生活,文学大师的秘密生活,罗伯特·施耐肯伯格,王敏,北京联合出版公司,2016-5-1,48.00,6.6
3152602,列维－斯特劳斯传（附卷）,,[法] 德尼·贝多莱,于秀英,中国人民大学出版社,2008-6,68.00元,8.2
4883642,细说民国大文人,那些思想大师们,民国文林,,现代,2010-6,36.00元,8.3
10577555,白崇禧将军身影集,,白先勇,,广西师范大学出版社,2012-5,98.00元,7.8
2382925,宋氏三姐妹,宋霭龄、宋庆龄、宋美龄,罗比·尤恩森,,世界知识出版社,1984-05,0.60元,7.9
1083446,麦哲伦航海纪\:探险史上最寂寞的壮举,,斯蒂芬・茨威格,苏惠玲,希望出版社,2004-9-1,38.00,8.7
1858193,疯狂的眼球,萨尔瓦多·达利难以言说的自白,(西班牙)萨尔瓦多·达利、(法国)安德列·巴西诺,王光林、闫卫建、谢晓晴、王莉群,上海文艺出版社,2006-7,49.00元,8.7
26821343,封面民国,说说那些上了《时代》周刊的民国政要,: 何小兰、上官人,,东方出版社,2016-7,32,7.6
1678412,名老中医之路,,周凤梧、张奇文、丛林 主编、《山东中医学院学报》编辑室 编,,山东科学技术出版社,2005-7,65.00元,9.1
1473343,生命的奮進,唐君毅、徐复观、牟宗三、梁漱溟四大学问家的青少年时代,唐君毅、徐复观、牟宗三、梁漱溟,,时报出版,1984-10-31,60.00,8.4
10466739,败者为王,,李宗伟,,布咕数码与印刷,2011,60.00,7.8
1046584,米开朗琪罗传,,（法）罗曼・罗兰,傅雷,三联书店,1999-08,39.00元,8.5
2237676,The Age of Turbulence,Adventures in a New World,Alan Greenspan,,Penguin Press HC, The,2007-09-17,USD 35.00,8.4
1079774,无尽的探索,卡尔·波普尔自传,[英] 卡尔·波普尔,邱仁宗,江苏人民出版社,2000-09,14.00元,8.2
10512238,天才的阴暗面,希区柯克的一生,〔美〕唐纳德·斯伯特,徐维光、吉晓倩,南海出版公司,2012-6,48.00元,7.9
26334681,我是谁人？,皮特·汤森自传,皮特·汤森,陈震,中国人民大学出版社,2015-8-1,76.00元,9.3
10739336,强人治国,普京传,安格斯·罗克斯伯勒,胡利平、林华,中信出版社,2012-6,45.00元,7.4
1144677,玛格丽特·尤瑟纳尔,,若斯亚娜·萨维诺,段映虹,花城出版社,2004-1,34.00元,8.5
1084484,马背上的水手,杰克・伦敦传,（美）欧文·斯通,董秋斯,中国人民大学出版社,2004-03-01,19.00,8.5
1434426,一个大学校长的自白,,刘道玉,,长江文艺出版社,2005-09-01,28.00元,8.5
2183783,粟裕回忆录,,粟裕,,解放军（原长虹）,2007-8,46.00元,8.4
1038909,马斯洛传,人的权利的沉思,爱德华·霍夫曼,许金声,华夏出版社,2003-01,29.8,8.5
1058251,达利自传,,萨尔瓦多・达利,,欧阳英,上海人民美术出版社,18.00,8.2
25840000,乾隆帝,,[美] 欧立德 (Mark C. Elliott),青石,社会科学文献出版社,2014-5-1,CNY 49.00,7.4
20379949,最后的闺秀,,张允和,,生活·读书·新知三联书店,2012-10,28.00元,7.2
10955911,俄罗斯的安娜,安娜·阿赫玛托娃传,(英)范斯坦,马海甸,上海译文出版社,2013-2,40.00元,7.7
4055772,英伦之谜,阿加莎·克里斯蒂传,[英] 劳拉·汤普森、Laura Thompson,姚翠丽、姬登杰,上海译文出版社,2011-5,38.00元,7.8
10539808,生活曾经这样,,[英] 格雷厄姆·格林,陆谷孙,上海译文出版社,2012-6-1,34.00元,7.4
10531017,宋美龄,一个世纪女人的梦想、辉煌和悲剧,[美] 李台珊、Laura Tyson Li,齐仲里、郭骅,华文出版社,2012-3,48.00元,8.0
5414530,与自己对话,,[南非] 纳尔逊·曼德拉,王旭,中信出版社,2011-1,68.00元,7.5
1811560,梵高自传,,(荷)梵高,(美)斯通,,人民文学出版社,2005-7,19.00元,8.6
1986386,玛格丽特·杜拉斯,真相与传奇,阿兰·维尔贡德莱,胡小跃,作家出版社,2007.01,46.00元,8.5
26617182,挑战不可能,李昌钰的鉴识人生,[美]李昌钰,,中信出版社,2015-10,45.00元,8.7
6397526,薇拉,符拉基米尔·纳博科夫夫人,[美] 史黛西·希芙,李小均,广西师范大学出版社,2011-8,39.00元,8.3
2253751,我最美好的回忆,,[法] 弗朗索瓦兹·萨冈,刘云虹,江苏人民出版社,2007-8,10.00元,7.9
24892377,巴黎的艺术女神：吉吉画传,,[法] 卡特尔·穆勒　绘、[法] 若泽-路易·博凯　文,王怡静,文汇出版社,2013-7-30,58.00元,8.2
6952213,宋美龄传,,(美)汉娜·帕库拉,林添贵,东方出版社,2012-1,68.00元,8.1
1840759,我的一生,卡萨诺瓦自传,(意)贾科莫·卡萨诺瓦,高中甫、贺骥、杜新华,北京燕山出版社,2006年7月,25元,7.3
4199482,我是布隆伯格,,迈克尔·布隆伯格,李浚帆,中信出版社,2010-1,38.00元,7.9
10545543,莫扎特和他的歌剧,,大卫·凯恩斯,谢瑛华,上海三联书店,2012-3,49.00元,8.9
6727724,穆里尼奥传,葡萄牙制造,[葡] 路易斯·洛伦索,陈震,新世界出版社,2011-7,36.80元,8.2
10429652,因为懂得 所以慈悲,张爱玲的倾城往事,白落梅,,中国华侨出版社,2012-1,28.00元,7.2
26714710,生命的热情何在,高更的塔西提手记,[法] 保罗·高更	（Paul Gauguin）,吴婷,江苏凤凰文艺出版社,2016-3,39.80元,7.5
26764871,将心注入,,霍华德·舒尔茨 (Howard Schultz)、多莉·琼斯·扬 (Dori Jones Yang),,中信财经出版社,中信出版集团,2015-8-1,CNY 48.00,7.6
1029056,高僧传,,释慧皎,,中华书局,1992-10,27.50,9.0
1456524,这个世界会好吗,梁漱溟晚年口述,[美] 艾恺 采访、梁漱溟 口述、一耽学堂 整理,,东方出版中心,2006-1,35.00元,7.9
1138946,蒋廷黻回忆录,,蒋廷黻,,岳麓书社,2003-9,13.8,8.2
26282416,大唐孔雀,薛涛和文青的中唐,寇研,,北京大学出版社,2015-1,35.00元,7.5
1039585,罗马十二帝王传,,[古罗马] 苏维托尼乌斯,张竹明、王乃新、蒋平 等,商务印书馆,2000-02,17.00,8.0
4869637,福楼拜的鹦鹉,,朱利安·巴恩斯,石雅芳,译林出版社,2010-5,23.00元,8.1
26842576,此身，此心,,陈冬芹,,理想国 | 广西师范大学出版社,2016-8,55元,7.9
1127363,影尘回忆录,,倓虚,,宗教文化出版社,2003-12-1,20.0,9.2
10576301,阿瑟·米勒自传,,阿瑟·米勒,蓝玲、林贝加、梁彦,华东师范大学出版社,2016-7,58.00,8.0
1329967,苏轼传,,王水照、崔铭,,天津人民出版社,2000-1-1,49.8,8.5
3340092,30而励,风暴主播思考中国与世界,芮成钢,,中国人民大学出版社,2009-1,36.00元,7.2
5920841,毛泽东传（全6卷）,,逄先知、金冲及,,中央文献出版社,2011-1,170.00元,8.4
3471776,沙漠之花（全）,,Waris Dirie,,Harper Perennial,1999年10月6日,18.00,7.8
1534948,隐面人,前东德情报局局长回忆录,[德]马库斯·沃尔夫,胡利平,国际文化出版公司,1999-7,25.0,8.9
10345583,塞林格传,,(美)坎尼斯·斯拉文斯基,史国强,现代出版社,2012-2,39.80元,7.6
1287806,名哲言行录,,(古希腊)第欧根尼·拉尔修,马永翔、赵玉兰、祝和军、张志华,吉林人民出版社,2003-1-1,56.50,8.5
20427187,看见,,柴静,,广西师范大学出版社,2013-1-1,39.80元,8.8
1448974,弗洛伊德自传,,（奥）弗洛伊德,（台）廖运范,东方出版社,2005-10-1,28.00,7.5
20282603,王石说,我的成功是别人不再需要我,王石、时代纪录,,浙江大学出版社,2013-1,39.00元,7.6
3239321,活埋蓝调里,珍妮丝·乔普林传,(美)麦拉•弗莱曼（Myra Friedman）,高晓莹,南京大学出版社,2008年10月第一版,29.00元,7.8
1282824,史家陈寅恪传,,汪荣祖,,北京大学出版社,2005-03,28.00,8.1
21778431,同时代人回忆陀思妥耶夫斯基,,(俄罗斯)多利宁,翁文达,广西师范大学出版社,2014-3,82.00,8.5
4820899,Facebook,关于性、金钱、天才和背叛,(美) 麦兹里奇、Ben Mezrich,马小艳,中信出版社,2010-6,29.00元,6.6
2153226,约翰·穆勒自传,,约翰·穆勒,,华夏出版社,2007-6,29.00元,8.2
26314527,若为自由故,自由软件之父理查德·斯托曼传,[美] Sam Williams,邓楠、李凡希,人民邮电出版社,2015-4,49,8.5
1997221,罗兰巴特自述,,罗兰·巴特,怀宇,百花文艺出版社,2006年12月,28.00元,8.1
26701181,内藤湖南,汉学与政治,傅佛果,陶德民、何英莺,江苏人民出版社,2016-3,CNY 58.00,7.7
1200599,杜甫评传,,莫砺锋,,南京大学出版社,1993-10,45.00元,8.3
4884840,我的漫画人生,日本漫画之神自传,(日)手冢治虫,张苓,中信出版社,2010年7月,26.00元,8.4
26766887,林肯传,,詹姆斯·麦克弗森 (James M.Mcpherson),田雷,中国政法大学出版社,2016-3-1,39.00元,8.5
2051953,爱情是这个样子的：蒙巴那斯的吉吉,——爱情是这个样子的,（法）吉吉,朱晓蕾,东方出版中心,2007年3月,25.00元,7.8
1274409,福泽谕吉自传,,（日）福泽谕吉,马斌,商务印书馆,1996-07,12.10,8.2
6810299,劉若瑀的三十六堂表演課,,劉若瑀,,天下遠見出版股份有限公司,2011-8-31,NT$330,9.2
1966719,Founders at Work,Stories of Startups' Early Days,Jessica Livingston,,Apress,2007-01-22,USD 25.99,8.6
2131382,尼采,,（丹麦）乔治·勃兰兑斯,安延明,中国社会科学出版社,1992-8,4.80元,8.7
4912683,极权制造,莱妮·瑞芬斯塔尔的一生,[美] 斯蒂文·巴赫,程淑娟、王国栋,新星出版社,2010-7,42.00元,8.0
2040775,辛弃疾传 辛稼轩年谱,辛稼轩年谱,邓广铭,,生活·读书·新知三联书店,2007-3,20.00元,8.4
25812943,从布朗克斯到百老汇,,莫斯·哈特,于海生 王丽,华夏出版社,2014-1,49.00元,8.7
24743202,红蕖留梦,叶嘉莹谈诗忆往,叶嘉莹口述、张候萍撰写,,三联书店,2013-5,48.00,8.8
1750013,曼哈顿的中国女人,,[美国]周励,,北京出版社,1992-5,18.00元,7.8
26435134,梦回仲夏,夏梦的电影和人生,[马来西亚]子宇,,世界图书出版公司,2015-7,48.00元,8.2
5415450,阿加莎·克里斯蒂秘密笔记,,[英] 约翰·克伦,陈羡,人民文学出版社,2011-3,33.00元,7.4
1069846,杰奎琳.肯尼迪传,,(法)卡特琳﹒潘高尔 陈耐秋,,中国文学出版社,1998-02,15.80元,7.7
2262233,托洛茨基：我的生平,,(苏)列夫·托洛茨基,赵泓、田娟玉、郑异凡,上海人民出版社,2007-9,40.00元,8.2
1007824,萨特传,,西蒙娜・德・波伏瓦,黄忠晶,百花洲文艺出版社,1996-04,26.00,8.0
25849190,流动的斯文──合肥张家记事（全二册）,,王道 著,,浙江大学出版社,2014-4,75.00元,8.4
1036909,上车走人,与黑旗摇滚在路上,[美] 亨利·罗林斯,郝舫 等,文化艺术出版社,2002-8,29.80元,7.9
3616661,卡夫卡口述,,（奥）卡夫卡口述、（捷）雅诺施记录、赵登荣译,赵登荣,上海三联书店,2009-3,19.80元,8.8
26285623,周恩来最后600天,,顾保孜、杜修贤,,中国青年出版社,2015-1-1,68.00元,8.4
25732329,肯尼迪：信仰在风中飘扬,,约翰·F.肯尼迪,马小悟,北京大学出版社,2013-10-15,36,8.1
1039005,倾听雅尼,,[美] 雅尼·大卫·兰森,徐匡,九州出版社,2004-11,29.80元,9.1
26897187,活着回来的男人,一个普通日本兵的二战及战后生命史,[日] 小熊英二,黄耀进,理想国 | 广西师范大学出版社,2017-1,62.00元,7.7
20442237,这一生为何而来,海灵格自传·访谈录,【德】伯特•海灵格 著、嘉碧绿·谭·荷,陈丽芬,广东经济出版社,2012-12,39.80元,7.5
1001769,知堂回想录（上下）,,周作人,止庵,河北教育出版社,2002-1-1,38.9,8.7
3715982,当幸福来敲门,The Pursuit of Happyness,[美]克里斯·加德纳,米拉,清华大学出版社,2009-4,30.00元,8.6
1279913,安徒生剪影,,林桦 编著,,生活·读书·新知三联书店,2005-3,38.80元,8.6
3756524,狄拉克,科学和人生,赫尔奇·克劳,,湖南科学技术出版社,2009-4,45.00元,9.0
2210591,史迪威与美国在中国的经验,1911-1945,[美]巴巴拉•W.塔奇曼（Barbara W. Tuchman）,万里新,新星出版社,2007-9,58.00元,8.3
26698164,回首一笑七十年,,郑佩佩,,生活·读书·新知三联书店,2016-1,49.00,7.1
25883308,两个世界的回忆,个人生命的旁白,(德) 福兰阁,欧阳甦,社会科学文献出版社,2014-7,59.00元,9.4
10601655,台北爸爸，纽约妈妈,,陈俊志,,辽宁教育出版社,2012-5,39.80元,8.1
1047060,数字情种,埃尔德什传,陈俊志,,辽宁教育出版社,2012-5,39.80元,8.6
3076851,托尔金与世界大战,跨过中土世界的门槛,[英] 约翰·加思,,陈灼,2008-5,38.00元,8.5
26864412,有点意思,,李思思,,中信出版社,2016-8-30,42.00,7.3
5377008,折返點1997 ~ 2008,,宮崎駿,黃穎凡,臺灣東販,2010-11-24,720元台幣,8.8
3124833,萨姆·沃尔顿自传,,宮崎駿,黃穎凡,臺灣東販,2010-11-24,720元台幣,8.7
1964611,懸崖邊的貴族,蔣友柏版,蔣友柏、蔣友常 口述、張殿文 著,,天下文化,2006-12-15,TWD 280,7.3
1450542,齐如山回忆录,,齐如山,,辽宁教育出版社,2005-10,33.00元,8.2
1024790,托尔斯泰传（上下）,,（英）艾尔默・莫德,宋蜀碧、徐迟,北京十月文艺出版社,2001-5,55.00元,9.2
1005358,寻找家园,,高尔泰,,花城出版社,2004-11-03,20.00,9.2
6431957,遇见一些人，流泪,Seeing,Sweeping,韩梅梅,,北方妇女儿童出版社,2011-5-1,26.80元,7.8
2000789,里芬施塔尔回忆录,,[德]莱妮·里芬施塔尔,丁伟祥,学林出版社,2007年1月,39.80元,8.1
2221199,我的自传,,(俄罗斯)克鲁泡特金,巴金,人民文学出版社,2007-7,24.00元,8.6
10472587,朱鎔基傳,朱鎔基與現代中國的轉型,[美] 龍安志,丁力,香港中和,2012-1,HK$128,8.0
1907315,雷蒙·阿隆回忆录,五十年的政治反思,[法]雷蒙·阿隆,杨祖功 等,新星出版社,2006-9,68.00元,8.2
26613052,我的造梦之路,,[日] 今敏,焦阳,雅众文化／新星出版社,2015-12-20,42.00,8.7
1944436,华盛顿传,,Joseph J.Ellis,陈继静,陕西师范大学出版社,2006-11,30.00元,7.9
26260758,光与影,吉米·佩奇谈话录,布莱德·托林斯基,吴少骊、陈易之,中国人民大学出版社,2014-11,55元,8.6
25928297,我的简史,,史蒂芬·霍金,,湖南科学技术出版社,2014-8-10,42.00,7.4
26108253,Girl in a Band,A Memoir,Kim Gordon,,Dey Street Books,2015-2-24,USD 27.99,8.9
6860119,民国的气质,,Kim Gordon,,Dey Street Books,2015-2-24,USD 27.99,7.7
10605332,天下得失,蒋介石的人生,汪朝光、王奇生、金以林,,山西人民出版社,2012-5-1,42.00元,8.1
1551359,亚历山大三部曲（共三册）,梦之子 阿蒙的沙漠 世界的边界,[意大利] 瓦莱里奥·马西莫·曼弗雷迪,魏怡、杜颖、潘源文、翟恒,译林出版社,2006-8,58.50元,8.2
25893943,和王世襄先生在一起的日子,,田家青,,三联书店,2014-5,48.00,8.5
25927510,本尼迪克特•康伯巴奇：关于“卷福”的一切,,[英]里内特•波特,刘国伟,百花洲文艺出版社,2014-8,38.00,7.2
4212230,许倬云谈话录,,许倬云口述、李怀宇撰写,,广西师范大学出版社,2010.1,29.00元,8.1
26857396,情报的艺术,我的30年中情局情报生涯,[美] 杰克·迪瓦恩（Jack Devine）、[美] 弗农·勒伯（Vernon Loeb）,陈青,化学工业出版社·悦读名品,2016-11-1,46.00元,7.9
1051036,茜茜公主,伊丽莎白——一位不情愿的皇后,[奥] 布里姬特·哈曼,王泰智,商务印书馆,2001-9,47.00元,8.4
21778051,半生记,,(日)松本清张,邱振瑞,广西师范大学出版社,2013-7,28.00,7.9
1719691,心学大师王阳明大传,,周月亮,,中华工商联合出版社,1999-1,26.00元,8.3
26393438,在火星上退休,伊隆•马斯克传,[美]亚当·杰佛逊,奕均,上海人民出版社,2015-5,38.00元,7.4
20480670,安迪·沃霍尔: 15分钟的永恒,15分钟的永恒,米歇尔·努里德萨尼,李昕晖、欧瑜、周行,中信出版社,2013-1-4,68.00元,8.0
2364996,间谍王,戴笠与中国特工（特别版：纪念魏斐德逝世一周年）,（美）魏斐德,梁禾,江苏人民出版社,2007-12,42.00元,7.6
7064581,张艺谋的作业,,张艺谋、方希,,北京大学出版社,2012-1,48.00元,7.9
4851625,甘地的真理,,[美]埃里克•埃里克森(Erik H．Erikson),吕文江、田嵩燕,中央编译出版社,2010年5月,68.00元,8.3
11520508,姚明传,,杨毅,,新星出版社,2012-8-1,45.00元,7.9
3710548,曹汝霖一生之回忆,,曹汝霖,,中国大百科全书出版社,2009-4,58.00元,8.4
26413503,Why Not Me?,,Mindy Kaling,,Crown Archetype,2015-9-29,USD 25.00,7.6
2132955,艾柯卡自传,据伦敦Sidgwick & Tackson Limited1985年版译出。,艾柯卡（Lee Iacocca）、诺瓦克（William Novak）,周谦、叶进,河北科学技术出版社,1986.7,2.7,8.6
1313463,我的艺术生活,,（俄）斯坦尼斯拉夫,瞿白音,上海译文出版社,2005-04,46.00,8.6
26352877,永不褪色的时光,宝丽来的故事,[美]克里斯托弗·博纳诺斯,胡玥,重庆大学出版社,2015-5-1,68.00,8.0
26795068,无码：艺术大师的秘密生活,,[美] 伊丽莎白·伦迪,王敏,北京联合出版公司·未读,2016-5,48.00元,7.2
6533206,卑鄙的圣人：曹操,,王晓磊,,江苏文艺出版社,2011-6,29.90元,7.5
1839575,罗素回忆录,来自记忆里的肖像,伯特兰·罗素,吴凯琳,希望出版社,2006-7,28.00元,8.3
1075202,人生十八局,现在我将这样下,吴清源,,中信出版社,2004-6-1,48.00,9.2
4860630,生命之树,达尔文的一生,(美)彼得·西斯,张琰,中国民族摄影艺术出版社,2010年5月,32.80元,9.1
1000696,饥饿的女儿,,虹影,,知识出版社,2003-04,20.00,8.2
26333278,宿命,孤独张艺谋,周晓枫,,长江文艺出版社,2015-3-1,42,6.8
1023045,我们仨,,杨绛,,生活·读书·新知三联书店,2003-7,18.80元,8.6
6017554,蓝毛衣,,[美] Jacqueline Novogratz,姜雪影,京华出版社,2011-3,29.80,8.6
4162721,丘吉尔传,,马丁·吉尔伯特,马昕,长江文艺出版社,2009-10,32.00元,7.6
26836667,世道与人心,,余世存,铁葫芦,北京联合出版公司出版,2016-9-1,42.00,7.8
25725826,拉法：纳达尔自传,,[西]拉斐尔·纳达尔 约翰·卡林,陈超，赵伟佳,上海译文出版社,2013-9,38.00,8.6
26342628,Becoming Steve Jobs,从粗俗暴发户走向卓越领袖,[西]拉斐尔·纳达尔 约翰·卡林,陈超，赵伟佳,上海译文出版社,2013-9,38.00,8.6
4126694,时尚先锋香奈儿,,马赛尔·海德里希,治棋,中信出版社,2009,28.00元,7.2
5448179,别的声音，别的房间,,[美] 杜鲁门·卡波特,李践、陈星,南京大学出版社,2011-2,26.00元,8.0
2150278,切·格瓦拉语录,,师永刚、刘琼雄、詹涓 编,,生活·读书·新知三联书店,2007-7,36.00元,8.2
1057892,在性与爱之间挣扎,在性与爱之间争扎,莎乐美,北塔、匡咏梅,上海人民出版社,2003-08,29.80元,7.4
1441951,我的生活与工作,,亨利·福特（美）,梓浪、莫丽芸,北京邮电大学出版社,2005,27.6,8.4
25867200,创作大师,从乔叟、丢勒到毕加索和迪士尼,[英]保罗·约翰逊,蔡承志,中信出版社,2014-5,40.00元,7.8
6526783,蒋介石的人际网络,,汪朝光 编,,社会科学文献出版社,2011-6-1,39.00元,7.8
1575685,顾维钧回忆录(第一分册),,顾维钧,中国社会科学院近代史研究所,中华书局,1983-5,2.45元,9.0
3184339,华丽家族,六朝陈郡谢氏家传,萧华荣,,生活·读书·新知三联书店,2008-08,16.50元,8.0
26365688,沈从文与我,,黄永玉,,湖南美术出版社,2015-4-1,CNY 39.80,7.9
6048997,读我的胸针,一位外交官珠宝盒里的故事,玛德琳·奥尔布赖特,邱仪,广西师范大学出版社,2011-4,48.00元,7.7
1001193,再见了，可鲁,一只狗的一生,[日] 石黑谦吾 撰文、秋元良平 摄影,[日] 猿渡静子 译,南海出版公司,2003-1,25.00元,8.6
5383175,童年与故乡,,[挪威] 古尔布兰生,吴朗西  译、丰子恺  书,新星出版社,2010-11,78.00元,8.7
2213509,理想主义的困惑,寻找纪录片大师小川绅介,彭小莲,,华东师范大学出版社,2007-8-3,34.80元,8.4
25867201,英雄,从亚历山大大帝、尤里乌斯·凯撒到丘吉尔和戴高乐,[英]保罗·约翰逊,张薇薇,中信出版社,2014-5,38.00元,7.8
1009368,李敖回忆录,,李敖,,中国友谊出版社,2004-08,26.00元,7.9
6522235,大法官是这样炼成的,哈里·布莱克门的最高法院之旅,[美] 琳达·格林豪斯,何帆,中国法制出版社,2011-6,28.00元,8.1
26359367,一生,,[法] 西蒙娜·韦伊,侯合余,南京大学出版社,2015-6,30.00元,8.6
1808333,霍洛维茨之夜,肖像素描,大卫·杜巴尔,,人民音乐出版社,2006-1,26.00元,8.7
26369111,朋霍费尔,牧师、殉道者、先知、间谍,埃里克·梅塔萨斯,顾华德,上海三联书店,2015-10,75.00,8.8
1801430,我的情报与外交生涯,,熊向晖,,中共党史出版社,2006-3,39.80元,8.2
1800104,从影五十年,高峰秀子自传,高峰秀子,盛凡夫、杞元,文化艺术出版社,1986-07-01,1.70,8.6
1005975,我生有涯愿无尽,,梁漱溟,,中国人民大学出版社,2004-11,26.80元,8.0
26369279,他是谁?探究真实的鲍勃·迪伦,他是谁?探究真实的鲍勃·迪伦,[美] 戴维·道尔顿,郝巍,广西师范大学出版社,2015-6-1,68.00元,7.4
1094819,毛泽东传,1893-1949,金冲及 主编、中共中央文献研究室 编,,中央文献出版社,1996-8,58.00元,7.8
4817590,雪洞,喜马拉雅山上的悟道历程,维琪·麦肯基,莲心,南方出版,2010-4,29.80元,8.3
